     Program PWSCF v.6.7MaX starts on  1Sep2024 at 18:14:16

     R & G space division:  proc/nbgrp/npool/nimage =       4
     Reading input from carbon_nanotube_relax2.in
Warning: card &CELL ignored
Warning: card     CELL_DYNAMICS = 'BFGS' ignored
Warning: card     PRESS = 0.0 ignored
Warning: card     PRESS_CONV_THR = 0.01 ignored
Warning: card / ignored

     Current dimensions of program PWSCF are:
     Max number of different atomic species (ntypx) = 10
     Max number of k-points (npk) =  40000
     Max angular momentum in pseudopotentials (lmaxx) =  3
     file C.UPF: wavefunction(s)  3d renormalized

     IMPORTANT: XC functional enforced from input :
     Exchange-correlation= PBESOL
                           (   1   4  10   8   0   0   0)
     Any further DFT definition will be discarded
     Please, verify this is what you really want

     Parameters for DFT-D3 Dispersion Correction:
       Reference C6 values for interpolation:

         atom   Coordination number   C6
         C          0.000            98.23
         C          0.987            86.49
         C          1.998            58.72
         C          2.999            51.56
         C          3.984            36.41

       Values used:

         atom   Coordination number  R0_AB[au]  C6      C8
         C          3.318            2.750     48.20   1394.00
         C          3.318            2.750     48.20   1394.07
         C          3.318            2.750     48.20   1394.07
         C          3.318            2.750     48.20   1394.00
         C          3.318            2.750     48.20   1394.10
         C          3.318            2.750     48.20   1393.98
         C          3.318            2.750     48.20   1394.02
         C          3.318            2.750     48.20   1394.01
         C          3.318            2.750     48.20   1393.94
         C          3.318            2.750     48.20   1394.05
         C          3.318            2.750     48.20   1393.99
         C          3.318            2.750     48.20   1394.07
         C          3.318            2.750     48.20   1393.95
         C          3.318            2.750     48.20   1394.07
         C          3.318            2.750     48.20   1394.03
         C          3.318            2.750     48.20   1394.01
         C          3.318            2.750     48.20   1393.92
         C          3.318            2.750     48.20   1394.01
         C          3.318            2.750     48.20   1393.97
         C          3.318            2.750     48.20   1393.98

         Molecular C6 ( Ry / a.u.^6 ) =     19279.79

     Message from routine setup:
     no reason to have ecutrho>4*ecutwfc

     bravais-lattice index     =            6
     lattice parameter (alat)  =      56.6918  a.u.
     unit-cell volume          =   14937.8366 (a.u.)^3
     number of atoms/cell      =           20
     number of atomic types    =            1
     number of electrons       =        80.00
     number of Kohn-Sham states=           40
     kinetic-energy cutoff     =      40.0000  Ry
     charge density cutoff     =     326.0000  Ry
     scf convergence threshold =      1.0E-08
     mixing beta               =       0.6000
     number of iterations used =            8  plain     mixing
     energy convergence thresh.=      1.0E-04
     force convergence thresh. =      1.0E-04
     Exchange-correlation= PBESOL
                           (   1   4  10   8   0   0   0)
     nstep                     =          500

     celldm(1)=  56.691784  celldm(2)=   0.000000  celldm(3)=   0.081984
     celldm(4)=   0.000000  celldm(5)=   0.000000  celldm(6)=   0.000000

     crystal axes: (cart. coord. in units of alat)
               a(1) = (   1.000000   0.000000   0.000000 )
               a(2) = (   0.000000   1.000000   0.000000 )
               a(3) = (   0.000000   0.000000   0.081984 )

     reciprocal axes: (cart. coord. in units 2 pi/alat)
               b(1) = (  1.000000  0.000000  0.000000 )
               b(2) = (  0.000000  1.000000  0.000000 )
               b(3) = (  0.000000  0.000000 12.197552 )

     PseudoPot. # 1 for C  read from file:
     /usr/share/espresso/pseudo/C.UPF
     MD5 check sum: 4781e8ce5ee01a432381f51d0ea25c53
     Pseudo is Norm-conserving, Zval =  4.0
     Generated by new atomic code, or converted to UPF format
     Using radial grid of  461 points,  2 beta functions with:
                l(1) =   0
                l(2) =   1

     atomic species   valence    mass     pseudopotential
        C              4.00    12.01070     C ( 1.00)

      2 Sym. Ops. (no inversion) found

                                    s                        frac. trans.

      isym =  1     identity

 cryst.   s( 1) = (     1          0          0      )
                  (     0          1          0      )
                  (     0          0          1      )

 cart.    s( 1) = (  1.0000000  0.0000000  0.0000000 )
                  (  0.0000000  1.0000000  0.0000000 )
                  (  0.0000000  0.0000000  1.0000000 )

      isym =  2     inv. 180 deg rotation - cart. axis [0,0,1]

 cryst.   s( 2) = (     1          0          0      )
                  (     0          1          0      )
                  (     0          0         -1      )

 cart.    s( 2) = (  1.0000000  0.0000000  0.0000000 )
                  (  0.0000000  1.0000000  0.0000000 )
                  (  0.0000000  0.0000000 -1.0000000 )

     point group C_s (m)
     there are  2 classes
     the character table:

       E     s
A'     1.00  1.00
A''    1.00 -1.00

     the symmetry operations in each class and the name of the first element:

     E        1
          identity
     s        2
          inv. 180 deg rotation - cart. axis [0,0,1]

   Cartesian axes

     site n.     atom                  positions (alat units)
         1           C   tau(   1) = (   0.5353381   0.6092469   0.0409918  )
         2           C   tau(   2) = (   0.4070003   0.5673834   0.0409918  )
         3           C   tau(   3) = (   0.4071864   0.4323775   0.0409918  )
         4           C   tau(   4) = (   0.5356244   0.3908439   0.0409918  )
         5           C   tau(   5) = (   0.6148290   0.5001499   0.0409918  )
         6           C   tau(   6) = (   0.4878012   0.6141685   0.0409918  )
         7           C   tau(   7) = (   0.3876396   0.5236944   0.0409918  )
         8           C   tau(   8) = (   0.4427534   0.4004671   0.0409918  )
         9           C   tau(   9) = (   0.5769841   0.4147924   0.0409918  )
        10           C   tau(  10) = (   0.6048218   0.5468732   0.0409918  )
        11           C   tau(  11) = (   0.4643835   0.6091365   0.0000000  )
        12           C   tau(  12) = (   0.3851970   0.4998545   0.0000000  )
        13           C   tau(  13) = (   0.4646665   0.3907747   0.0000000  )
        14           C   tau(  14) = (   0.5929795   0.4326267   0.0000000  )
        15           C   tau(  15) = (   0.5927971   0.5676044   0.0000000  )
        16           C   tau(  16) = (   0.5572300   0.5995134   0.0000000  )
        17           C   tau(  17) = (   0.4230303   0.5851906   0.0000000  )
        18           C   tau(  18) = (   0.3952019   0.4531321   0.0000000  )
        19           C   tau(  19) = (   0.5121971   0.3858580   0.0000000  )
        20           C   tau(  20) = (   0.6123398   0.4763120   0.0000000  )

   Crystallographic axes

     site n.     atom                  positions (cryst. coord.)
         1           C   tau(   1) = (  0.5353381  0.6092469  0.5000000  )
         2           C   tau(   2) = (  0.4070003  0.5673834  0.5000000  )
         3           C   tau(   3) = (  0.4071864  0.4323775  0.5000000  )
         4           C   tau(   4) = (  0.5356244  0.3908439  0.5000000  )
         5           C   tau(   5) = (  0.6148290  0.5001499  0.5000000  )
         6           C   tau(   6) = (  0.4878012  0.6141685  0.5000000  )
         7           C   tau(   7) = (  0.3876396  0.5236944  0.5000000  )
         8           C   tau(   8) = (  0.4427534  0.4004671  0.5000000  )
         9           C   tau(   9) = (  0.5769841  0.4147924  0.5000000  )
        10           C   tau(  10) = (  0.6048218  0.5468732  0.5000000  )
        11           C   tau(  11) = (  0.4643835  0.6091365  0.0000000  )
        12           C   tau(  12) = (  0.3851970  0.4998545  0.0000000  )
        13           C   tau(  13) = (  0.4646665  0.3907747  0.0000000  )
        14           C   tau(  14) = (  0.5929795  0.4326267  0.0000000  )
        15           C   tau(  15) = (  0.5927971  0.5676044  0.0000000  )
        16           C   tau(  16) = (  0.5572300  0.5995134  0.0000000  )
        17           C   tau(  17) = (  0.4230303  0.5851906  0.0000000  )
        18           C   tau(  18) = (  0.3952019  0.4531321  0.0000000  )
        19           C   tau(  19) = (  0.5121971  0.3858580  0.0000000  )
        20           C   tau(  20) = (  0.6123398  0.4763120  0.0000000  )

     number of k points=     6
                       cart. coord. in units 2pi/alat
        k(    1) = (   0.0000000   0.0000000   0.0000000), wk =   0.2000000
        k(    2) = (   0.0000000   0.0000000   1.2197552), wk =   0.4000000
        k(    3) = (   0.0000000   0.0000000   2.4395103), wk =   0.4000000
        k(    4) = (   0.0000000   0.0000000   3.6592655), wk =   0.4000000
        k(    5) = (   0.0000000   0.0000000   4.8790206), wk =   0.4000000
        k(    6) = (   0.0000000   0.0000000  -6.0987758), wk =   0.2000000

                       cryst. coord.
        k(    1) = (   0.0000000   0.0000000   0.0000000), wk =   0.2000000
        k(    2) = (   0.0000000   0.0000000   0.1000000), wk =   0.4000000
        k(    3) = (   0.0000000   0.0000000   0.2000000), wk =   0.4000000
        k(    4) = (   0.0000000   0.0000000   0.3000000), wk =   0.4000000
        k(    5) = (   0.0000000   0.0000000   0.4000000), wk =   0.4000000
        k(    6) = (   0.0000000   0.0000000  -0.5000000), wk =   0.2000000

     Atomic positions and unit cell read from directory:
     ./tmp/carbon_nanotube.save/

     The initial density is read from file :
     ./tmp/carbon_nanotube.save/charge-density

     Starting wfcs from file

     Self-consistent Calculation

     iteration #  1     ecut=    40.00 Ry     beta= 0.60
     Davidson diagonalization with overlap
     ethr =  1.00E-05,  avg # of iterations =  7.7

     total energy              =    -228.12541366 Ry
     estimated scf accuracy    <       1.68789225 Ry

[...]

     End of self-consistent calculation

          k = 0.0000 0.0000 0.0000 ( 63941 PWs)   bands (ev):

   -23.1116 -22.8485 -22.8479 -22.0763 -22.0761 -20.8441 -20.8437 -19.2290
   -19.2280 -17.7313 -16.5887 -14.8285 -14.8278 -12.4787 -12.4780 -11.4409
   -11.1470 -11.1462 -10.6983 -10.6976 -10.0414  -9.8122  -9.8098  -9.2290
    -9.2280  -9.1447  -9.1442  -8.4389  -8.4381  -8.1563  -8.1556  -7.6419
    -7.6393  -7.1459  -7.1434  -6.7762  -6.7322  -6.7311  -6.6832  -5.5661

     occupation numbers
     1.0000   1.0000   1.0000   1.0000   1.0000   1.0000   1.0000   1.0000
[...]
C             0.6108913112        0.4766714364        0.0000000000

     Writing output data file ./tmp/carbon_nanotube.save/
     NEW-OLD atomic charge density approx. for the potential

     Self-consistent Calculation

[...]

     Threshold (ethr) on eigenvalues was too large:
     Diagonalizing with lowered threshold

     Davidson diagonalization with overlap
     ethr =  5.10E-11,  avg # of iterations =  6.0

[...]

     total energy              =    -228.41298890 Ry
     estimated scf accuracy    <       0.00000002 Ry

     iteration #  4     ecut=    40.00 Ry     beta= 0.60
     Davidson diagonalization with overlap
     ethr =  1.96E-11,  avg # of iterations =  5.3

     End of self-consistent calculation

[...]

          k = 0.0000 0.0000-6.0988 ( 63698 PWs)   bands (ev):

   -18.9363 -18.9361 -18.6916 -18.6914 -18.6913 -18.6911 -18.0340 -18.0338
   -18.0338 -18.0336 -16.5398 -16.5398 -16.5396 -16.5396 -15.1424 -15.1424
   -15.1423 -15.1421 -13.9731 -13.9730 -12.5168 -12.5166 -11.3697 -11.3696
   -11.3694 -11.3694 -10.2352 -10.2352 -10.2350 -10.2348  -6.5472  -6.5471
    -6.3597  -6.3596  -6.3592  -6.3592  -5.9840  -5.9839  -5.9839  -5.9837

     occupation numbers
     1.0000   1.0000   1.0000   1.0000   1.0000   1.0000   1.0000   1.0000
     1.0000   1.0000   1.0000   1.0000   1.0000   1.0000   1.0000   1.0000
     1.0000   1.0000   1.0000   1.0000   1.0000   1.0000   1.0000   1.0000
     1.0000   1.0000   1.0000   1.0000   1.0000   1.0000   1.0000   1.0000
     1.0000   1.0000   1.0000   1.0000   1.0000   1.0000   1.0000   1.0000

     highest occupied level (ev):    -3.6535

!    total energy              =    -228.41298890 Ry
     estimated scf accuracy    <          1.5E-09 Ry

     The total energy is the sum of the following terms:
     one-electron contribution =   -4540.08897403 Ry
     hartree contribution      =    2278.12435352 Ry
     xc contribution           =     -69.65532970 Ry
     ewald contribution        =    2103.24790665 Ry
     DFT-D3 Dispersion         =      -0.04094535 Ry

     convergence has been achieved in   4 iterations

     Forces acting on atoms (cartesian axes, Ry/au):

     atom    1 type  1   force =     0.00001220    0.00004280    0.00000000
     atom    2 type  1   force =    -0.00000610    0.00007997    0.00000000
     atom    3 type  1   force =    -0.00005209    0.00001364    0.00000000
     atom    4 type  1   force =     0.00004597   -0.00001814    0.00000000
     atom    5 type  1   force =     0.00000935   -0.00008754    0.00000000
     atom    6 type  1   force =     0.00001676    0.00002172    0.00000000
     atom    7 type  1   force =    -0.00005805    0.00001487    0.00000000
     atom    8 type  1   force =     0.00008726   -0.00007238    0.00000000
     atom    9 type  1   force =    -0.00001839   -0.00006706    0.00000000
     atom   10 type  1   force =     0.00000972    0.00003911    0.00000000
     atom   11 type  1   force =     0.00006883   -0.00004312    0.00000000
     atom   12 type  1   force =     0.00003535   -0.00001805    0.00000000
     atom   13 type  1   force =    -0.00006538    0.00009862    0.00000000
     atom   14 type  1   force =    -0.00004969   -0.00001169    0.00000000
     atom   15 type  1   force =    -0.00001341   -0.00003900    0.00000000
     atom   16 type  1   force =    -0.00000211   -0.00002967    0.00000000
     atom   17 type  1   force =    -0.00001847   -0.00007451    0.00000000
     atom   18 type  1   force =     0.00005069    0.00003746    0.00000000
     atom   19 type  1   force =    -0.00000008    0.00005766    0.00000000
     atom   20 type  1   force =    -0.00005236    0.00005532    0.00000000
     The non-local contrib.  to forces
     atom    1 type  1   force =     0.00881100    0.06075739    0.00000000
     atom    2 type  1   force =    -0.05501682    0.02722988    0.00000000
     atom    3 type  1   force =    -0.04288289   -0.04390968    0.00000000
     atom    4 type  1   force =     0.02855317   -0.05433521    0.00000000
     atom    5 type  1   force =     0.06047181    0.01028355    0.00000000
     atom    6 type  1   force =     0.00382318    0.06119111    0.00000000
     atom    7 type  1   force =    -0.05715559    0.02254907    0.00000000
     atom    8 type  1   force =    -0.03899611   -0.04738825    0.00000000
     atom    9 type  1   force =     0.03290379   -0.05179953    0.00000000
     atom   10 type  1   force =     0.05939710    0.01531443    0.00000000
     atom   11 type  1   force =    -0.02846098    0.05425865    0.00000000
     atom   12 type  1   force =    -0.06044226   -0.01039340    0.00000000
     atom   13 type  1   force =    -0.00882555   -0.06061567    0.00000000
     atom   14 type  1   force =     0.05492648   -0.02715576    0.00000000
     atom   15 type  1   force =     0.04280100    0.04385176    0.00000000
     atom   16 type  1   force =     0.03908417    0.04726228    0.00000000
     atom   17 type  1   force =    -0.03292385    0.05170014    0.00000000
     atom   18 type  1   force =    -0.05936249   -0.01520158    0.00000000
     atom   19 type  1   force =    -0.00381685   -0.06110515    0.00000000
     atom   20 type  1   force =     0.05702750   -0.02251959    0.00000000
     The ionic contribution  to forces
     atom    1 type  1   force =     5.56016447   17.27843576    0.00000000
     atom    2 type  1   force =   -14.73981839   10.63590748    0.00000000
     atom    3 type  1   force =   -14.65254148  -10.75194836    0.00000000
     atom    4 type  1   force =     5.69750088  -17.23298675    0.00000000
     atom    5 type  1   force =    18.13773411    0.07326815    0.00000000
     atom    6 type  1   force =    -1.88609888   18.04089220    0.00000000
     atom    7 type  1   force =   -17.73995534    3.80599774    0.00000000
     atom    8 type  1   force =    -9.11714870  -15.71544320    0.00000000
     atom    9 type  1   force =    12.15450345  -13.52028041    0.00000000
     atom   10 type  1   force =    16.58829123    7.39059995   -0.00000000
     atom   11 type  1   force =    -5.69769879   17.23483690   -0.00000000
     atom   12 type  1   force =   -18.13981723   -0.07324430   -0.00000000
     atom   13 type  1   force =    -5.56106495  -17.28031346   -0.00000000
     atom   14 type  1   force =    14.74117615  -10.63718658   -0.00000000
     atom   15 type  1   force =    14.65385419   10.75272522   -0.00000000
     atom   16 type  1   force =     9.11798699   15.71718311   -0.00000000
     atom   17 type  1   force =   -12.15648306   13.52201546   -0.00000000
     atom   18 type  1   force =   -16.59011239   -7.39132897   -0.00000000
     atom   19 type  1   force =     1.88664858  -18.04262601   -0.00000000
     atom   20 type  1   force =    17.74287916   -3.80650396   -0.00000000
     The local contribution  to forces
     atom    1 type  1   force =    -5.56897619  -17.33905291   -0.00000000
     atom    2 type  1   force =    14.79473365  -10.66303273   -0.00000000
     atom    3 type  1   force =    14.69534037   10.79576246    0.00000000
     atom    4 type  1   force =    -5.72592319   17.28723421    0.00000000
     atom    5 type  1   force =   -18.19810570   -0.08359080    0.00000000
     atom    6 type  1   force =     1.88234275  -18.10196274    0.00000000
     atom    7 type  1   force =    17.79697826   -3.82844582    0.00000000
     atom    8 type  1   force =     9.15616099   15.76269474   -0.00000000
     atom    9 type  1   force =   -12.18739011   13.57192355    0.00000000
     atom   10 type  1   force =   -16.64757152   -7.40589495    0.00000000
     atom   11 type  1   force =     5.72615859  -17.28906310    0.00000000
     atom   12 type  1   force =    18.20020514    0.08357773    0.00000000
     atom   13 type  1   force =     5.56987804   17.34091377    0.00000000
     atom   14 type  1   force =   -14.79603452   10.66433623    0.00000000
     atom   15 type  1   force =   -14.69662302  -10.79652605   -0.00000000
     atom   16 type  1   force =    -9.15696898  -15.76443252    0.00000000
     atom   17 type  1   force =    12.18938267  -13.57367115   -0.00000000
     atom   18 type  1   force =    16.64942532    7.40657298    0.00000000
     atom   19 type  1   force =    -1.88286338   18.10369124   -0.00000000
     atom   20 type  1   force =   -17.79988154    3.82900258    0.00000000
     The core correction contribution to forces
     atom    1 type  1   force =     0.00000000    0.00000000    0.00000000
     atom    2 type  1   force =     0.00000000    0.00000000    0.00000000
     atom    3 type  1   force =     0.00000000    0.00000000    0.00000000
     atom    4 type  1   force =     0.00000000    0.00000000    0.00000000
     atom    5 type  1   force =     0.00000000    0.00000000    0.00000000
     atom    6 type  1   force =     0.00000000    0.00000000    0.00000000
     atom    7 type  1   force =     0.00000000    0.00000000    0.00000000
     atom    8 type  1   force =     0.00000000    0.00000000    0.00000000
     atom    9 type  1   force =     0.00000000    0.00000000    0.00000000
     atom   10 type  1   force =     0.00000000    0.00000000    0.00000000
     atom   11 type  1   force =     0.00000000    0.00000000    0.00000000
     atom   12 type  1   force =     0.00000000    0.00000000    0.00000000
     atom   13 type  1   force =     0.00000000    0.00000000    0.00000000
     atom   14 type  1   force =     0.00000000    0.00000000    0.00000000
     atom   15 type  1   force =     0.00000000    0.00000000    0.00000000
     atom   16 type  1   force =     0.00000000    0.00000000    0.00000000
     atom   17 type  1   force =     0.00000000    0.00000000    0.00000000
     atom   18 type  1   force =     0.00000000    0.00000000    0.00000000
     atom   19 type  1   force =     0.00000000    0.00000000    0.00000000
     atom   20 type  1   force =     0.00000000    0.00000000    0.00000000
     The Hubbard contrib.    to forces
     atom    1 type  1   force =     0.00000000    0.00000000    0.00000000
     atom    2 type  1   force =     0.00000000    0.00000000    0.00000000
     atom    3 type  1   force =     0.00000000    0.00000000    0.00000000
     atom    4 type  1   force =     0.00000000    0.00000000    0.00000000
     atom    5 type  1   force =     0.00000000    0.00000000    0.00000000
     atom    6 type  1   force =     0.00000000    0.00000000    0.00000000
     atom    7 type  1   force =     0.00000000    0.00000000    0.00000000
     atom    8 type  1   force =     0.00000000    0.00000000    0.00000000
     atom    9 type  1   force =     0.00000000    0.00000000    0.00000000
     atom   10 type  1   force =     0.00000000    0.00000000    0.00000000
     atom   11 type  1   force =     0.00000000    0.00000000    0.00000000
     atom   12 type  1   force =     0.00000000    0.00000000    0.00000000
     atom   13 type  1   force =     0.00000000    0.00000000    0.00000000
     atom   14 type  1   force =     0.00000000    0.00000000    0.00000000
     atom   15 type  1   force =     0.00000000    0.00000000    0.00000000
     atom   16 type  1   force =     0.00000000    0.00000000    0.00000000
     atom   17 type  1   force =     0.00000000    0.00000000    0.00000000
     atom   18 type  1   force =     0.00000000    0.00000000    0.00000000
     atom   19 type  1   force =     0.00000000    0.00000000    0.00000000
     atom   20 type  1   force =     0.00000000    0.00000000    0.00000000
     The SCF correction term to forces
     atom    1 type  1   force =    -0.00001731   -0.00000260   -0.00000000
     atom    2 type  1   force =    -0.00000673   -0.00002171   -0.00000000
     atom    3 type  1   force =    -0.00000545    0.00001507   -0.00000000
     atom    4 type  1   force =    -0.00000964    0.00000765   -0.00000000
     atom    5 type  1   force =    -0.00001158    0.00000639   -0.00000000
     atom    6 type  1   force =    -0.00000713   -0.00001162   -0.00000000
     atom    7 type  1   force =     0.00000238   -0.00001570   -0.00000000
     atom    8 type  1   force =    -0.00002117    0.00001954   -0.00000000
     atom    9 type  1   force =    -0.00002412   -0.00000956   -0.00000000
     atom   10 type  1   force =    -0.00001194    0.00000221   -0.00000000
     atom   11 type  1   force =    -0.00001129   -0.00001513    0.00000000
     atom   12 type  1   force =     0.00000454   -0.00001419    0.00000000
     atom   13 type  1   force =    -0.00002827    0.00001773    0.00000000
     atom   14 type  1   force =    -0.00002163   -0.00000990    0.00000000
     atom   15 type  1   force =    -0.00001441    0.00000277    0.00000000
     atom   16 type  1   force =    -0.00001799    0.00000066    0.00000000
     atom   17 type  1   force =    -0.00001132   -0.00002141    0.00000000
     atom   18 type  1   force =    -0.00000076    0.00001136    0.00000000
     atom   19 type  1   force =    -0.00001754    0.00000903    0.00000000
     atom   20 type  1   force =    -0.00001146    0.00000422    0.00000000

     DFT-D3 dispersion contribution to forces:
     atom    1 type  1   force =     0.00002726   -0.00009554    0.00000000
     atom    2 type  1   force =     0.00009922   -0.00000366   -0.00000000
     atom    3 type  1   force =     0.00003438    0.00009345    0.00000000
     atom    4 type  1   force =    -0.00007822    0.00006125   -0.00000000
     atom    5 type  1   force =    -0.00008226   -0.00005552    0.00000000
     atom    6 type  1   force =    -0.00004614   -0.00008794   -0.00000000
     atom    7 type  1   force =     0.00006928   -0.00007112    0.00000000
     atom    8 type  1   force =     0.00008929    0.00004408    0.00000000
     atom    9 type  1   force =    -0.00001437    0.00009819   -0.00000000
     atom   10 type  1   force =    -0.00009812    0.00001677    0.00000000
     atom   11 type  1   force =     0.00007833   -0.00006115   -0.00000000
     atom   12 type  1   force =     0.00008219    0.00005541    0.00000000
     atom   13 type  1   force =    -0.00002762    0.00009555   -0.00000000
     atom   14 type  1   force =    -0.00009914    0.00000360    0.00000000
     atom   15 type  1   force =    -0.00003415   -0.00009340    0.00000000
     atom   16 type  1   force =    -0.00008926   -0.00004390    0.00000000
     atom   17 type  1   force =     0.00001412   -0.00009826   -0.00000000
     atom   18 type  1   force =     0.00009804   -0.00001703   -0.00000000
     atom   19 type  1   force =     0.00004615    0.00008785   -0.00000000
     atom   20 type  1   force =    -0.00006899    0.00007137   -0.00000000

     Total force =     0.000303     Total SCF correction =     0.000087

     DFT-D3 dispersion Force =     0.000444
     SCF correction compared to forces is large: reduce conv_thr to get better values
     Energy error            =      1.9E-07
     Gradient error          =      9.9E-05

     bfgs converged in   8 scf cycles and   7 bfgs steps
     (criteria: energy <  1.0E-04 Ry, force <  1.0E-04 Ry/Bohr)

     End of BFGS Geometry Optimization

     Final energy   =    -228.4129889015 Ry

     File ./tmp/carbon_nanotube.bfgs deleted, as requested
Begin final coordinates

ATOMIC_POSITIONS (crystal)
C             0.5349182755        0.6077880478        0.5000000000
C             0.4082703439        0.5665243781        0.5000000000
C             0.4083952023        0.4333278070        0.5000000000
C             0.5351093497        0.3922704169        0.5000000000
C             0.6133139408        0.5000943878        0.5000000000
C             0.4879126063        0.6126623444        0.5000000000
C             0.3891139715        0.5233263441        0.5000000000
C             0.4435581974        0.4017583064        0.5000000000
C             0.5760010986        0.4159562240        0.5000000000
C             0.6034109452        0.5463005077        0.5000000000
C             0.4648890431        0.6077331130        0.0000000000
C             0.3866821671        0.4999063275        0.0000000000
C             0.4650826028        0.3922072583        0.0000000000
C             0.5917322968        0.4334736872        0.0000000000
C             0.5916065356        0.5666734042        0.0000000000
C             0.5564434608        0.5982443278        0.0000000000
C             0.4239968607        0.5840491553        0.0000000000
C             0.3965846732        0.4536981656        0.0000000000
C             0.5120881178        0.3873343604        0.0000000000
C             0.6108913112        0.4766714364        0.0000000000
End final coordinates

     Writing output data file ./tmp/carbon_nanotube.save/

     General routines

     Parallel routines

   This run was terminated on:  18:54:22   1Sep2024

   JOB DONE.