     Program PWSCF v.6.7MaX starts on  1Sep2024 at 20:12:49

     R & G space division:  proc/nbgrp/npool/nimage =       4
     Reading input from carbon_nanotube_SCF3.in

     Current dimensions of program PWSCF are:
     Max number of different atomic species (ntypx) = 10
     Max number of k-points (npk) =  40000
     Max angular momentum in pseudopotentials (lmaxx) =  3
     file C.UPF: wavefunction(s)  3d renormalized

     IMPORTANT: XC functional enforced from input :
     Exchange-correlation= PBESOL
                           (   1   4  10   8   0   0   0)
     Any further DFT definition will be discarded
     Please, verify this is what you really want

     Parameters for DFT-D3 Dispersion Correction:
       Reference C6 values for interpolation:

         atom   Coordination number   C6
         C          0.000            98.23
         C          0.987            86.49
         C          1.998            58.72
         C          2.999            51.56
         C          3.984            36.41

       Values used:

         atom   Coordination number  R0_AB[au]  C6      C8
         C          3.347            2.750     47.57   1375.77
         C          3.347            2.750     47.57   1375.75
         C          3.347            2.750     47.57   1375.79
         C          3.347            2.750     47.57   1375.73
         C          3.347            2.750     47.57   1375.76
         C          3.347            2.750     47.57   1375.78
         C          3.347            2.750     47.57   1375.75
         C          3.347            2.750     47.57   1375.81
         C          3.347            2.750     47.57   1375.74
         C          3.347            2.750     47.57   1375.78
         C          3.347            2.750     47.57   1375.76
         C          3.347            2.750     47.57   1375.78
         C          3.347            2.750     47.57   1375.78
         C          3.347            2.750     47.57   1375.76
         C          3.347            2.750     47.57   1375.76
         C          3.347            2.750     47.57   1375.79
         C          3.347            2.750     47.57   1375.76
         C          3.347            2.750     47.57   1375.78
         C          3.347            2.750     47.57   1375.80
         C          3.347            2.750     47.57   1375.75

         Molecular C6 ( Ry / a.u.^6 ) =     19027.47

     Message from routine setup:
     no reason to have ecutrho>4*ecutwfc

     bravais-lattice index     =            6
     lattice parameter (alat)  =      56.6918  a.u.
     unit-cell volume          =   14937.8366 (a.u.)^3
     number of atoms/cell      =           20
     number of atomic types    =            1
     number of electrons       =        80.00
     number of Kohn-Sham states=           40
     kinetic-energy cutoff     =      40.0000  Ry
     charge density cutoff     =     326.0000  Ry
     scf convergence threshold =      1.0E-09
     mixing beta               =       0.6000
     number of iterations used =            8  plain     mixing
     Exchange-correlation= PBESOL
                           (   1   4  10   8   0   0   0)

     celldm(1)=  56.691784  celldm(2)=   0.000000  celldm(3)=   0.081984
     celldm(4)=   0.000000  celldm(5)=   0.000000  celldm(6)=   0.000000

     crystal axes: (cart. coord. in units of alat)
               a(1) = (   1.000000   0.000000   0.000000 )
               a(2) = (   0.000000   1.000000   0.000000 )
               a(3) = (   0.000000   0.000000   0.081984 )

     reciprocal axes: (cart. coord. in units 2 pi/alat)
               b(1) = (  1.000000  0.000000  0.000000 )
               b(2) = (  0.000000  1.000000  0.000000 )
               b(3) = (  0.000000  0.000000 12.197552 )

     PseudoPot. # 1 for C  read from file:
     /usr/share/espresso/pseudo/C.UPF
     MD5 check sum: 4781e8ce5ee01a432381f51d0ea25c53
     Pseudo is Norm-conserving, Zval =  4.0
     Generated by new atomic code, or converted to UPF format
     Using radial grid of  461 points,  2 beta functions with:
                l(1) =   0
                l(2) =   1

     atomic species   valence    mass     pseudopotential
        C              4.00    12.01070     C ( 1.00)

      2 Sym. Ops. (no inversion) found

                                    s                        frac. trans.

      isym =  1     identity

 cryst.   s( 1) = (     1          0          0      )
                  (     0          1          0      )
                  (     0          0          1      )

 cart.    s( 1) = (  1.0000000  0.0000000  0.0000000 )
                  (  0.0000000  1.0000000  0.0000000 )
                  (  0.0000000  0.0000000  1.0000000 )

      isym =  2     inv. 180 deg rotation - cart. axis [0,0,1]

 cryst.   s( 2) = (     1          0          0      )
                  (     0          1          0      )
                  (     0          0         -1      )

 cart.    s( 2) = (  1.0000000  0.0000000  0.0000000 )
                  (  0.0000000  1.0000000  0.0000000 )
                  (  0.0000000  0.0000000 -1.0000000 )

     point group C_s (m)
     there are  2 classes
     the character table:

       E     s
A'     1.00  1.00
A''    1.00 -1.00

     the symmetry operations in each class and the name of the first element:

     E        1
          identity
     s        2
          inv. 180 deg rotation - cart. axis [0,0,1]

   Cartesian axes

     site n.     atom                  positions (alat units)
         1           C   tau(   1) = (   0.5349183   0.6077880   0.0409918  )
         2           C   tau(   2) = (   0.4082703   0.5665244   0.0409918  )
         3           C   tau(   3) = (   0.4083952   0.4333278   0.0409918  )
         4           C   tau(   4) = (   0.5351093   0.3922704   0.0409918  )
         5           C   tau(   5) = (   0.6133139   0.5000944   0.0409918  )
         6           C   tau(   6) = (   0.4879126   0.6126623   0.0409918  )
         7           C   tau(   7) = (   0.3891140   0.5233263   0.0409918  )
         8           C   tau(   8) = (   0.4435582   0.4017583   0.0409918  )
         9           C   tau(   9) = (   0.5760011   0.4159562   0.0409918  )
        10           C   tau(  10) = (   0.6034109   0.5463005   0.0409918  )
        11           C   tau(  11) = (   0.4648890   0.6077331   0.0000000  )
        12           C   tau(  12) = (   0.3866822   0.4999063   0.0000000  )
        13           C   tau(  13) = (   0.4650826   0.3922073   0.0000000  )
        14           C   tau(  14) = (   0.5917323   0.4334737   0.0000000  )
        15           C   tau(  15) = (   0.5916065   0.5666734   0.0000000  )
        16           C   tau(  16) = (   0.5564435   0.5982443   0.0000000  )
        17           C   tau(  17) = (   0.4239969   0.5840492   0.0000000  )
        18           C   tau(  18) = (   0.3965847   0.4536982   0.0000000  )
        19           C   tau(  19) = (   0.5120881   0.3873344   0.0000000  )
        20           C   tau(  20) = (   0.6108913   0.4766714   0.0000000  )

   Crystallographic axes

     site n.     atom                  positions (cryst. coord.)
         1           C   tau(   1) = (  0.5349183  0.6077880  0.5000000  )
         2           C   tau(   2) = (  0.4082703  0.5665244  0.5000000  )
         3           C   tau(   3) = (  0.4083952  0.4333278  0.5000000  )
         4           C   tau(   4) = (  0.5351093  0.3922704  0.5000000  )
         5           C   tau(   5) = (  0.6133139  0.5000944  0.5000000  )
         6           C   tau(   6) = (  0.4879126  0.6126623  0.5000000  )
         7           C   tau(   7) = (  0.3891140  0.5233263  0.5000000  )
         8           C   tau(   8) = (  0.4435582  0.4017583  0.5000000  )
         9           C   tau(   9) = (  0.5760011  0.4159562  0.5000000  )
        10           C   tau(  10) = (  0.6034109  0.5463005  0.5000000  )
        11           C   tau(  11) = (  0.4648890  0.6077331  0.0000000  )
        12           C   tau(  12) = (  0.3866822  0.4999063  0.0000000  )
        13           C   tau(  13) = (  0.4650826  0.3922073  0.0000000  )
        14           C   tau(  14) = (  0.5917323  0.4334737  0.0000000  )
        15           C   tau(  15) = (  0.5916065  0.5666734  0.0000000  )
        16           C   tau(  16) = (  0.5564435  0.5982443  0.0000000  )
        17           C   tau(  17) = (  0.4239969  0.5840492  0.0000000  )
        18           C   tau(  18) = (  0.3965847  0.4536982  0.0000000  )
        19           C   tau(  19) = (  0.5120881  0.3873344  0.0000000  )
        20           C   tau(  20) = (  0.6108913  0.4766714  0.0000000  )

     number of k points=    24
                       cart. coord. in units 2pi/alat
        k(    1) = (   0.0000000   0.0000000   0.0000000), wk =   0.0500000
        k(    2) = (   0.0000000   0.0000000   1.2197552), wk =   0.1000000
        k(    3) = (   0.0000000   0.0000000   2.4395103), wk =   0.1000000
        k(    4) = (   0.0000000   0.0000000   3.6592655), wk =   0.1000000
        k(    5) = (   0.0000000   0.0000000   4.8790206), wk =   0.1000000
        k(    6) = (   0.0000000   0.0000000  -6.0987758), wk =   0.0500000
        k(    7) = (   0.0000000  -0.5000000   0.0000000), wk =   0.0500000
        k(    8) = (   0.0000000  -0.5000000   1.2197552), wk =   0.1000000
        k(    9) = (   0.0000000  -0.5000000   2.4395103), wk =   0.1000000
        k(   10) = (   0.0000000  -0.5000000   3.6592655), wk =   0.1000000
        k(   11) = (   0.0000000  -0.5000000   4.8790206), wk =   0.1000000
        k(   12) = (   0.0000000  -0.5000000  -6.0987758), wk =   0.0500000
        k(   13) = (  -0.5000000  -0.5000000   0.0000000), wk =   0.0500000
        k(   14) = (  -0.5000000  -0.5000000   1.2197552), wk =   0.1000000
        k(   15) = (  -0.5000000  -0.5000000   2.4395103), wk =   0.1000000
        k(   16) = (  -0.5000000  -0.5000000   3.6592655), wk =   0.1000000
        k(   17) = (  -0.5000000  -0.5000000   4.8790206), wk =   0.1000000
        k(   18) = (  -0.5000000  -0.5000000  -6.0987758), wk =   0.0500000
        k(   19) = (  -0.5000000   0.0000000   0.0000000), wk =   0.0500000
        k(   20) = (  -0.5000000   0.0000000  -1.2197552), wk =   0.1000000
        k(   21) = (  -0.5000000   0.0000000  -2.4395103), wk =   0.1000000
        k(   22) = (  -0.5000000   0.0000000  -3.6592655), wk =   0.1000000
        k(   23) = (  -0.5000000   0.0000000  -4.8790206), wk =   0.1000000
        k(   24) = (  -0.5000000   0.0000000   6.0987758), wk =   0.0500000

                       cryst. coord.
        k(    1) = (   0.0000000   0.0000000   0.0000000), wk =   0.0500000
        k(    2) = (   0.0000000   0.0000000   0.1000000), wk =   0.1000000
        k(    3) = (   0.0000000   0.0000000   0.2000000), wk =   0.1000000
        k(    4) = (   0.0000000   0.0000000   0.3000000), wk =   0.1000000
        k(    5) = (   0.0000000   0.0000000   0.4000000), wk =   0.1000000
        k(    6) = (   0.0000000   0.0000000  -0.5000000), wk =   0.0500000
        k(    7) = (   0.0000000  -0.5000000   0.0000000), wk =   0.0500000
        k(    8) = (   0.0000000  -0.5000000   0.1000000), wk =   0.1000000
        k(    9) = (   0.0000000  -0.5000000   0.2000000), wk =   0.1000000
        k(   10) = (   0.0000000  -0.5000000   0.3000000), wk =   0.1000000
        k(   11) = (   0.0000000  -0.5000000   0.4000000), wk =   0.1000000
        k(   12) = (   0.0000000  -0.5000000  -0.5000000), wk =   0.0500000
        k(   13) = (  -0.5000000  -0.5000000   0.0000000), wk =   0.0500000
        k(   14) = (  -0.5000000  -0.5000000   0.1000000), wk =   0.1000000
        k(   15) = (  -0.5000000  -0.5000000   0.2000000), wk =   0.1000000
        k(   16) = (  -0.5000000  -0.5000000   0.3000000), wk =   0.1000000
        k(   17) = (  -0.5000000  -0.5000000   0.4000000), wk =   0.1000000
        k(   18) = (  -0.5000000  -0.5000000  -0.5000000), wk =   0.0500000
        k(   19) = (  -0.5000000   0.0000000   0.0000000), wk =   0.0500000
        k(   20) = (  -0.5000000   0.0000000  -0.1000000), wk =   0.1000000
        k(   21) = (  -0.5000000   0.0000000  -0.2000000), wk =   0.1000000
        k(   22) = (  -0.5000000   0.0000000  -0.3000000), wk =   0.1000000
        k(   23) = (  -0.5000000   0.0000000  -0.4000000), wk =   0.1000000
        k(   24) = (  -0.5000000   0.0000000   0.5000000), wk =   0.0500000

     Atomic positions and unit cell read from directory:
     ./tmp/carbon_nanotube.save/

     The initial density is read from file :
     ./tmp/carbon_nanotube.save/charge-density

     Starting wfcs from file

     Self-consistent Calculation

     iteration #  1     ecut=    40.00 Ry     beta= 0.60
     Davidson diagonalization with overlap
     ethr =  1.00E-05,  avg # of iterations =  1.0

     Threshold (ethr) on eigenvalues was too large:
     Diagonalizing with lowered threshold

     Davidson diagonalization with overlap
     ethr =  3.56E-13,  avg # of iterations =  7.9

     total energy              =    -228.41279463 Ry
     estimated scf accuracy    <          3.3E-09 Ry

[...]

     total energy              =    -228.41279463 Ry
     estimated scf accuracy    <          9.2E-09 Ry

     iteration #  3     ecut=    40.00 Ry     beta= 0.60
     Davidson diagonalization with overlap
     ethr =  4.15E-12,  avg # of iterations =  5.4

     End of self-consistent calculation

          k = 0.0000 0.0000 0.0000 ( 63941 PWs)   bands (ev):

   -23.2496 -22.9782 -22.9779 -22.1829 -22.1828 -20.9148 -20.9148 -19.2495
   -19.2494 -17.6404 -16.6824 -14.8110 -14.8107 -12.4168 -12.4165 -11.5420
   -11.2346 -11.2341 -10.7031 -10.7029 -10.2335  -9.9953  -9.9946  -9.3012
    -9.3007  -9.1840  -9.1837  -8.4448  -8.4444  -8.2681  -8.2673  -7.5384
    -7.5377  -7.2074  -7.2070  -6.7207  -6.6822  -6.6764  -6.6762  -5.4570

     occupation numbers
     1.0000   1.0000   1.0000   1.0000   1.0000   1.0000   1.0000   1.0000
     1.0000   1.0000   1.0000   1.0000   1.0000   1.0000   1.0000   1.0000
     1.0000   1.0000   1.0000   1.0000   1.0000   1.0000   1.0000   1.0000
     1.0000   1.0000   1.0000   1.0000   1.0000   1.0000   1.0000   1.0000
     1.0000   1.0000   1.0000   1.0000   1.0000   1.0000   1.0000   1.0000

[...]

          k = 0.0000-0.5000-6.0988 ( 63732 PWs)   bands (ev):

[...]

          k =-0.5000-0.5000 0.0000 ( 64064 PWs)   bands (ev):

[...]

          k =-0.5000 0.0000 6.0988 ( 63732 PWs)   bands (ev):

   -18.9363 -18.9361 -18.6917 -18.6915 -18.6914 -18.6913 -18.0341 -18.0339
   -18.0338 -18.0337 -16.5399 -16.5399 -16.5398 -16.5398 -15.1426 -15.1425
   -15.1424 -15.1422 -13.9735 -13.9734 -12.5170 -12.5168 -11.3697 -11.3697
   -11.3694 -11.3693 -10.2355 -10.2354 -10.2350 -10.2349  -6.5473  -6.5472
    -6.3595  -6.3595  -6.3593  -6.3592  -5.9843  -5.9843  -5.9841  -5.9840

     occupation numbers
     1.0000   1.0000   1.0000   1.0000   1.0000   1.0000   1.0000   1.0000
     1.0000   1.0000   1.0000   1.0000   1.0000   1.0000   1.0000   1.0000
     1.0000   1.0000   1.0000   1.0000   1.0000   1.0000   1.0000   1.0000
     1.0000   1.0000   1.0000   1.0000   1.0000   1.0000   1.0000   1.0000
     1.0000   1.0000   1.0000   1.0000   1.0000   1.0000   1.0000   1.0000

     highest occupied level (ev):    -3.6533

!    total energy              =    -228.41279463 Ry
     estimated scf accuracy    <          1.9E-10 Ry

     The total energy is the sum of the following terms:
     one-electron contribution =   -4540.08894383 Ry
     hartree contribution      =    2278.12450692 Ry
     xc contribution           =     -69.65531906 Ry
     ewald contribution        =    2103.24790669 Ry
     DFT-D3 Dispersion         =      -0.04094535 Ry

     convergence has been achieved in   3 iterations

     Writing output data file ./tmp/carbon_nanotube.save/

     General routines

     Parallel routines

   This run was terminated on:  20:25:31   1Sep2024

   JOB DONE.