     Program PWSCF v.6.7MaX starts on  1Sep2024 at 16:14:12

     R & G space division:  proc/nbgrp/npool/nimage =       4
     Reading input from carbon_nanotube_SCF2.in

     Current dimensions of program PWSCF are:
     Max number of different atomic species (ntypx) = 10
     Max number of k-points (npk) =  40000
     Max angular momentum in pseudopotentials (lmaxx) =  3
     file C.pbe-n-kjpaw_psl.1.0.0.UPF: wavefunction(s)  2S 2P renormalized

     IMPORTANT: XC functional enforced from input :
     Exchange-correlation= PBE
                           (   1   4   3   4   0   0   0)
     Any further DFT definition will be discarded
     Please, verify this is what you really want

     bravais-lattice index     =            6
     lattice parameter (alat)  =      56.6918  a.u.
     unit-cell volume          =   14937.8366 (a.u.)^3
     number of atoms/cell      =           20
     number of atomic types    =            1
     number of electrons       =        80.00
     number of Kohn-Sham states=           40
     kinetic-energy cutoff     =      40.0000  Ry
     charge density cutoff     =     326.0000  Ry
     scf convergence threshold =      1.0E-09
     mixing beta               =       0.6000
     number of iterations used =            8  plain     mixing
     Exchange-correlation= PBE
                           (   1   4   3   4   0   0   0)

     celldm(1)=  56.691784  celldm(2)=   0.000000  celldm(3)=   0.081984
     celldm(4)=   0.000000  celldm(5)=   0.000000  celldm(6)=   0.000000

     crystal axes: (cart. coord. in units of alat)
               a(1) = (   1.000000   0.000000   0.000000 )
               a(2) = (   0.000000   1.000000   0.000000 )
               a(3) = (   0.000000   0.000000   0.081984 )

     reciprocal axes: (cart. coord. in units 2 pi/alat)
               b(1) = (  1.000000  0.000000  0.000000 )
               b(2) = (  0.000000  1.000000  0.000000 )
               b(3) = (  0.000000  0.000000 12.197552 )

     PseudoPot. # 1 for C  read from file:
     /home/alessandro_rotondi/q-e/pseudo/C.pbe-n-kjpaw_psl.1.0.0.UPF
     MD5 check sum: 5f16ad9a65e90284d1d834d4ab3b0f7d
     Pseudo is Projector augmented-wave + core cor, Zval =  4.0
     Generated using &quot;atomic&quot; code by A. Dal Corso  v.6.3
     Shape of augmentation charge: PSQ
     Using radial grid of 1073 points,  4 beta functions with:
                l(1) =   0
                l(2) =   0
                l(3) =   1
                l(4) =   1
     Q(r) pseudized with 0 coefficients

     atomic species   valence    mass     pseudopotential
        C              4.00    12.01070     C ( 1.00)

      2 Sym. Ops. (no inversion) found

                                    s                        frac. trans.

      isym =  1     identity

 cryst.   s( 1) = (     1          0          0      )
                  (     0          1          0      )
                  (     0          0          1      )

 cart.    s( 1) = (  1.0000000  0.0000000  0.0000000 )
                  (  0.0000000  1.0000000  0.0000000 )
                  (  0.0000000  0.0000000  1.0000000 )

      isym =  2     inv. 180 deg rotation - cart. axis [0,0,1]

 cryst.   s( 2) = (     1          0          0      )
                  (     0          1          0      )
                  (     0          0         -1      )

 cart.    s( 2) = (  1.0000000  0.0000000  0.0000000 )
                  (  0.0000000  1.0000000  0.0000000 )
                  (  0.0000000  0.0000000 -1.0000000 )

     point group C_s (m)
     there are  2 classes
     the character table:

       E     s
A'     1.00  1.00
A''    1.00 -1.00

     the symmetry operations in each class and the name of the first element:

     E        1
          identity
     s        2
          inv. 180 deg rotation - cart. axis [0,0,1]

   Cartesian axes

     site n.     atom                  positions (alat units)
         1           C   tau(   1) = (   0.5353381   0.6092469   0.0409918  )
         2           C   tau(   2) = (   0.4070003   0.5673834   0.0409918  )
         3           C   tau(   3) = (   0.4071864   0.4323775   0.0409918  )
         4           C   tau(   4) = (   0.5356244   0.3908439   0.0409918  )
         5           C   tau(   5) = (   0.6148290   0.5001499   0.0409918  )
         6           C   tau(   6) = (   0.4878012   0.6141685   0.0409918  )
         7           C   tau(   7) = (   0.3876396   0.5236944   0.0409918  )
         8           C   tau(   8) = (   0.4427534   0.4004671   0.0409918  )
         9           C   tau(   9) = (   0.5769841   0.4147924   0.0409918  )
        10           C   tau(  10) = (   0.6048218   0.5468732   0.0409918  )
        11           C   tau(  11) = (   0.4643835   0.6091365   0.0000000  )
        12           C   tau(  12) = (   0.3851970   0.4998545   0.0000000  )
        13           C   tau(  13) = (   0.4646665   0.3907747   0.0000000  )
        14           C   tau(  14) = (   0.5929795   0.4326267   0.0000000  )
        15           C   tau(  15) = (   0.5927971   0.5676044   0.0000000  )
        16           C   tau(  16) = (   0.5572300   0.5995134   0.0000000  )
        17           C   tau(  17) = (   0.4230303   0.5851906   0.0000000  )
        18           C   tau(  18) = (   0.3952019   0.4531321   0.0000000  )
        19           C   tau(  19) = (   0.5121971   0.3858580   0.0000000  )
        20           C   tau(  20) = (   0.6123398   0.4763120   0.0000000  )

   Crystallographic axes

     site n.     atom                  positions (cryst. coord.)
         1           C   tau(   1) = (  0.5353381  0.6092469  0.5000000  )
         2           C   tau(   2) = (  0.4070003  0.5673834  0.5000000  )
         3           C   tau(   3) = (  0.4071864  0.4323775  0.5000000  )
         4           C   tau(   4) = (  0.5356244  0.3908439  0.5000000  )
         5           C   tau(   5) = (  0.6148290  0.5001499  0.5000000  )
         6           C   tau(   6) = (  0.4878012  0.6141685  0.5000000  )
         7           C   tau(   7) = (  0.3876396  0.5236944  0.5000000  )
         8           C   tau(   8) = (  0.4427534  0.4004671  0.5000000  )
         9           C   tau(   9) = (  0.5769841  0.4147924  0.5000000  )
        10           C   tau(  10) = (  0.6048218  0.5468732  0.5000000  )
        11           C   tau(  11) = (  0.4643835  0.6091365  0.0000000  )
        12           C   tau(  12) = (  0.3851970  0.4998545  0.0000000  )
        13           C   tau(  13) = (  0.4646665  0.3907747  0.0000000  )
        14           C   tau(  14) = (  0.5929795  0.4326267  0.0000000  )
        15           C   tau(  15) = (  0.5927971  0.5676044  0.0000000  )
        16           C   tau(  16) = (  0.5572300  0.5995134  0.0000000  )
        17           C   tau(  17) = (  0.4230303  0.5851906  0.0000000  )
        18           C   tau(  18) = (  0.3952019  0.4531321  0.0000000  )
        19           C   tau(  19) = (  0.5121971  0.3858580  0.0000000  )
        20           C   tau(  20) = (  0.6123398  0.4763120  0.0000000  )

     number of k points=    24
                       cart. coord. in units 2pi/alat
        k(    1) = (   0.0000000   0.0000000   0.0000000), wk =   0.0500000
        k(    2) = (   0.0000000   0.0000000   1.2197552), wk =   0.1000000
        k(    3) = (   0.0000000   0.0000000   2.4395103), wk =   0.1000000
        k(    4) = (   0.0000000   0.0000000   3.6592655), wk =   0.1000000
        k(    5) = (   0.0000000   0.0000000   4.8790206), wk =   0.1000000
        k(    6) = (   0.0000000   0.0000000  -6.0987758), wk =   0.0500000
        k(    7) = (   0.0000000  -0.5000000   0.0000000), wk =   0.0500000
        k(    8) = (   0.0000000  -0.5000000   1.2197552), wk =   0.1000000
        k(    9) = (   0.0000000  -0.5000000   2.4395103), wk =   0.1000000
        k(   10) = (   0.0000000  -0.5000000   3.6592655), wk =   0.1000000
        k(   11) = (   0.0000000  -0.5000000   4.8790206), wk =   0.1000000
        k(   12) = (   0.0000000  -0.5000000  -6.0987758), wk =   0.0500000
        k(   13) = (  -0.5000000  -0.5000000   0.0000000), wk =   0.0500000
        k(   14) = (  -0.5000000  -0.5000000   1.2197552), wk =   0.1000000
        k(   15) = (  -0.5000000  -0.5000000   2.4395103), wk =   0.1000000
        k(   16) = (  -0.5000000  -0.5000000   3.6592655), wk =   0.1000000
        k(   17) = (  -0.5000000  -0.5000000   4.8790206), wk =   0.1000000
        k(   18) = (  -0.5000000  -0.5000000  -6.0987758), wk =   0.0500000
        k(   19) = (  -0.5000000   0.0000000   0.0000000), wk =   0.0500000
        k(   20) = (  -0.5000000   0.0000000  -1.2197552), wk =   0.1000000
        k(   21) = (  -0.5000000   0.0000000  -2.4395103), wk =   0.1000000
        k(   22) = (  -0.5000000   0.0000000  -3.6592655), wk =   0.1000000
        k(   23) = (  -0.5000000   0.0000000  -4.8790206), wk =   0.1000000
        k(   24) = (  -0.5000000   0.0000000   6.0987758), wk =   0.0500000

                       cryst. coord.
        k(    1) = (   0.0000000   0.0000000   0.0000000), wk =   0.0500000
        k(    2) = (   0.0000000   0.0000000   0.1000000), wk =   0.1000000
        k(    3) = (   0.0000000   0.0000000   0.2000000), wk =   0.1000000
        k(    4) = (   0.0000000   0.0000000   0.3000000), wk =   0.1000000
        k(    5) = (   0.0000000   0.0000000   0.4000000), wk =   0.1000000
        k(    6) = (   0.0000000   0.0000000  -0.5000000), wk =   0.0500000
        k(    7) = (   0.0000000  -0.5000000   0.0000000), wk =   0.0500000
        k(    8) = (   0.0000000  -0.5000000   0.1000000), wk =   0.1000000
        k(    9) = (   0.0000000  -0.5000000   0.2000000), wk =   0.1000000
        k(   10) = (   0.0000000  -0.5000000   0.3000000), wk =   0.1000000
        k(   11) = (   0.0000000  -0.5000000   0.4000000), wk =   0.1000000
        k(   12) = (   0.0000000  -0.5000000  -0.5000000), wk =   0.0500000
        k(   13) = (  -0.5000000  -0.5000000   0.0000000), wk =   0.0500000
        k(   14) = (  -0.5000000  -0.5000000   0.1000000), wk =   0.1000000
        k(   15) = (  -0.5000000  -0.5000000   0.2000000), wk =   0.1000000
        k(   16) = (  -0.5000000  -0.5000000   0.3000000), wk =   0.1000000
        k(   17) = (  -0.5000000  -0.5000000   0.4000000), wk =   0.1000000
        k(   18) = (  -0.5000000  -0.5000000  -0.5000000), wk =   0.0500000
        k(   19) = (  -0.5000000   0.0000000   0.0000000), wk =   0.0500000
        k(   20) = (  -0.5000000   0.0000000  -0.1000000), wk =   0.1000000
        k(   21) = (  -0.5000000   0.0000000  -0.2000000), wk =   0.1000000
        k(   22) = (  -0.5000000   0.0000000  -0.3000000), wk =   0.1000000
        k(   23) = (  -0.5000000   0.0000000  -0.4000000), wk =   0.1000000
        k(   24) = (  -0.5000000   0.0000000   0.5000000), wk =   0.0500000

     Atomic positions and unit cell read from directory:
     ./tmp/carbon_nanotube.save/

     Check: negative core charge=   -0.000002

     The initial density is read from file :
     ./tmp/carbon_nanotube.save/charge-density

     negative rho (up, down):  4.009E-03 0.000E+00
     Starting wfcs from file
     Checking if some PAW data can be deallocated...

     Self-consistent Calculation

     iteration #  1     ecut=    40.00 Ry     beta= 0.60
     Davidson diagonalization with overlap
     ethr =  1.00E-05,  avg # of iterations =  5.5

     Threshold (ethr) on eigenvalues was too large:
     Diagonalizing with lowered threshold

     Davidson diagonalization with overlap
     ethr =  5.62E-09,  avg # of iterations =  5.8

     negative rho (up, down):  4.009E-03 0.000E+00

     total energy              =    -368.61238130 Ry
     estimated scf accuracy    <          8.3E-09 Ry

[...]

     total energy              =    -368.61238133 Ry
     estimated scf accuracy    <          6.5E-09 Ry

     iteration #  3     ecut=    40.00 Ry     beta= 0.60
     Davidson diagonalization with overlap
     ethr =  8.15E-12,  avg # of iterations =  2.1

     negative rho (up, down):  4.009E-03 0.000E+00

     End of self-consistent calculation

          k = 0.0000 0.0000 0.0000 ( 63941 PWs)   bands (ev):

   -23.1853 -22.9219 -22.9213 -22.1483 -22.1481 -20.9127 -20.9123 -19.2940
   -19.2930 -17.8237 -16.5576 -14.8157 -14.8152 -12.4330 -12.4325 -11.3222
   -11.0272 -11.0266 -10.5916 -10.5909  -9.8953  -9.6597  -9.6575  -9.1236
    -9.1227  -8.9817  -8.9815  -8.3147  -8.3139  -7.9878  -7.9873  -7.5018
    -7.4993  -6.9782  -6.9751  -6.6066  -6.5998  -6.5985  -6.5105  -5.4336

     occupation numbers
     1.0000   1.0000   1.0000   1.0000   1.0000   1.0000   1.0000   1.0000
     1.0000   1.0000   1.0000   1.0000   1.0000   1.0000   1.0000   1.0000
     1.0000   1.0000   1.0000   1.0000   1.0000   1.0000   1.0000   1.0000
     1.0000   1.0000   1.0000   1.0000   1.0000   1.0000   1.0000   1.0000
     1.0000   1.0000   1.0000   1.0000   1.0000   1.0000   1.0000   1.0000

[...]

          k = 0.0000-0.5000-6.0988 ( 63732 PWs)   bands (ev):

[...]

          k =-0.5000-0.5000 0.0000 ( 64064 PWs)   bands (ev):

[...]

          k =-0.5000 0.0000 6.0988 ( 63732 PWs)   bands (ev):

   -18.8442 -18.8441 -18.6112 -18.6111 -18.6105 -18.6103 -17.9949 -17.9947
   -17.9946 -17.9945 -16.4484 -16.4480 -16.4476 -16.4472 -15.1190 -15.1186
   -15.1178 -15.1171 -14.0449 -14.0447 -12.3212 -12.3194 -11.2540 -11.2534
   -11.2526 -11.2517 -10.1315 -10.1313 -10.1298 -10.1296  -6.3317  -6.3305
    -6.1505  -6.1503  -6.1498  -6.1497  -5.7953  -5.7950  -5.7948  -5.7946

     occupation numbers
     1.0000   1.0000   1.0000   1.0000   1.0000   1.0000   1.0000   1.0000
     1.0000   1.0000   1.0000   1.0000   1.0000   1.0000   1.0000   1.0000
     1.0000   1.0000   1.0000   1.0000   1.0000   1.0000   1.0000   1.0000
     1.0000   1.0000   1.0000   1.0000   1.0000   1.0000   1.0000   1.0000
     1.0000   1.0000   1.0000   1.0000   1.0000   1.0000   1.0000   1.0000

     highest occupied level (ev):    -3.6201

!    total energy              =    -368.61238134 Ry

     total all-electron energy =     -1523.894326 Ry
     estimated scf accuracy    <          3.8E-10 Ry

     The total energy is the sum of the following terms:
     one-electron contribution =   -4472.11078742 Ry
     hartree contribution      =    2247.00469540 Ry
     xc contribution           =     -92.61403298 Ry
     ewald contribution        =    2072.44288275 Ry
     one-center paw contrib.   =    -123.33513908 Ry
      -> PAW hartree energy AE =      47.03464051 Ry
      -> PAW hartree energy PS =     -46.99163146 Ry
      -> PAW xc energy AE      =     -53.26891303 Ry
      -> PAW xc energy PS      =      22.39212940 Ry
      -> total E_H with PAW    =    2247.04770445 Ry
      -> total E_XC with PAW   =    -123.49081661 Ry

     convergence has been achieved in   3 iterations

     Writing output data file ./tmp/carbon_nanotube.save/

     General routines

     Parallel routines

     PAW routines

   This run was terminated on:  16:41: 3   1Sep2024

   JOB DONE.