     Program PWSCF v.6.7MaX starts on  1Sep2024 at 14:19: 3

     R & G space division:  proc/nbgrp/npool/nimage =       4
     Reading input from carbon_nanotube_relax.in

     Current dimensions of program PWSCF are:
     Max number of different atomic species (ntypx) = 10
     Max number of k-points (npk) =  40000
     Max angular momentum in pseudopotentials (lmaxx) =  3
     file C.pbe-n-kjpaw_psl.1.0.0.UPF: wavefunction(s)  2S 2P renormalized

     bravais-lattice index     =            6
     lattice parameter (alat)  =      56.6918  a.u.
     unit-cell volume          =   14937.8366 (a.u.)^3
     number of atoms/cell      =           20
     number of atomic types    =            1
     number of electrons       =        80.00
     number of Kohn-Sham states=           40
     kinetic-energy cutoff     =      40.0000  Ry
     charge density cutoff     =     326.0000  Ry
     scf convergence threshold =      1.0E-08
     mixing beta               =       0.6000
     number of iterations used =            8  plain     mixing
     energy convergence thresh.=      1.0E-04
     force convergence thresh. =      1.0E-03
     Exchange-correlation= SLA  PW   PBX  PBC
                           (   1   4   3   4   0   0   0)
     nstep                     =          500

     celldm(1)=  56.691784  celldm(2)=   0.000000  celldm(3)=   0.081984
     celldm(4)=   0.000000  celldm(5)=   0.000000  celldm(6)=   0.000000

     crystal axes: (cart. coord. in units of alat)
               a(1) = (   1.000000   0.000000   0.000000 )
               a(2) = (   0.000000   1.000000   0.000000 )
               a(3) = (   0.000000   0.000000   0.081984 )

     reciprocal axes: (cart. coord. in units 2 pi/alat)
               b(1) = (  1.000000  0.000000  0.000000 )
               b(2) = (  0.000000  1.000000  0.000000 )
               b(3) = (  0.000000  0.000000 12.197552 )

     PseudoPot. # 1 for C  read from file:
     /home/alessandro_rotondi/q-e/pseudo/C.pbe-n-kjpaw_psl.1.0.0.UPF
     MD5 check sum: 5f16ad9a65e90284d1d834d4ab3b0f7d
     Pseudo is Projector augmented-wave + core cor, Zval =  4.0
     Generated using &quot;atomic&quot; code by A. Dal Corso  v.6.3
     Shape of augmentation charge: PSQ
     Using radial grid of 1073 points,  4 beta functions with:
                l(1) =   0
                l(2) =   0
                l(3) =   1
                l(4) =   1
     Q(r) pseudized with 0 coefficients

     atomic species   valence    mass     pseudopotential
        C              4.00    12.01070     C ( 1.00)

      2 Sym. Ops. (no inversion) found

                                    s                        frac. trans.

      isym =  1     identity

 cryst.   s( 1) = (     1          0          0      )
                  (     0          1          0      )
                  (     0          0          1      )

 cart.    s( 1) = (  1.0000000  0.0000000  0.0000000 )
                  (  0.0000000  1.0000000  0.0000000 )
                  (  0.0000000  0.0000000  1.0000000 )

      isym =  2     inv. 180 deg rotation - cart. axis [0,0,1]

 cryst.   s( 2) = (     1          0          0      )
                  (     0          1          0      )
                  (     0          0         -1      )

 cart.    s( 2) = (  1.0000000  0.0000000  0.0000000 )
                  (  0.0000000  1.0000000  0.0000000 )
                  (  0.0000000  0.0000000 -1.0000000 )

     point group C_s (m)
     there are  2 classes
     the character table:

       E     s
A'     1.00  1.00
A''    1.00 -1.00

     the symmetry operations in each class and the name of the first element:

     E        1
          identity
     s        2
          inv. 180 deg rotation - cart. axis [0,0,1]

   Cartesian axes

     site n.     atom                  positions (alat units)
         1           C   tau(   1) = (   0.5349190   0.6074690   0.0409918  )
         2           C   tau(   2) = (   0.4085810   0.5664200   0.0409918  )
         3           C   tau(   3) = (   0.4085810   0.4335800   0.0409918  )
         4           C   tau(   4) = (   0.5349190   0.3925310   0.0409918  )
         5           C   tau(   5) = (   0.6130000   0.5000000   0.0409918  )
         6           C   tau(   6) = (   0.4878370   0.6123440   0.0409918  )
         7           C   tau(   7) = (   0.3893960   0.5231490   0.0409918  )
         8           C   tau(   8) = (   0.4438060   0.4019630   0.0409918  )
         9           C   tau(   9) = (   0.5758740   0.4162610   0.0409918  )
        10           C   tau(  10) = (   0.6030870   0.5462840   0.0409918  )
        11           C   tau(  11) = (   0.4645780   0.6073050   0.0000000  )
        12           C   tau(  12) = (   0.3870010   0.4994700   0.0000000  )
        13           C   tau(  13) = (   0.4655850   0.3923680   0.0000000  )
        14           C   tau(  14) = (   0.5917290   0.4340090   0.0000000  )
        15           C   tau(  15) = (   0.5911070   0.5668480   0.0000000  )
        16           C   tau(  16) = (   0.5566530   0.5977720   0.0000000  )
        17           C   tau(  17) = (   0.4245200   0.5840930   0.0000000  )
        18           C   tau(  18) = (   0.3966980   0.4542000   0.0000000  )
        19           C   tau(  19) = (   0.5116360   0.3876010   0.0000000  )
        20           C   tau(  20) = (   0.6104940   0.4763330   0.0000000  )

   Crystallographic axes

     site n.     atom                  positions (cryst. coord.)
         1           C   tau(   1) = (  0.5349190  0.6074690  0.5000000  )
         2           C   tau(   2) = (  0.4085810  0.5664200  0.5000000  )
         3           C   tau(   3) = (  0.4085810  0.4335800  0.5000000  )
         4           C   tau(   4) = (  0.5349190  0.3925310  0.5000000  )
         5           C   tau(   5) = (  0.6130000  0.5000000  0.5000000  )
         6           C   tau(   6) = (  0.4878370  0.6123440  0.5000000  )
         7           C   tau(   7) = (  0.3893960  0.5231490  0.5000000  )
         8           C   tau(   8) = (  0.4438060  0.4019630  0.5000000  )
         9           C   tau(   9) = (  0.5758740  0.4162610  0.5000000  )
        10           C   tau(  10) = (  0.6030870  0.5462840  0.5000000  )
        11           C   tau(  11) = (  0.4645780  0.6073050  0.0000000  )
        12           C   tau(  12) = (  0.3870010  0.4994700  0.0000000  )
        13           C   tau(  13) = (  0.4655850  0.3923680  0.0000000  )
        14           C   tau(  14) = (  0.5917290  0.4340090  0.0000000  )
        15           C   tau(  15) = (  0.5911070  0.5668480  0.0000000  )
        16           C   tau(  16) = (  0.5566530  0.5977720  0.0000000  )
        17           C   tau(  17) = (  0.4245200  0.5840930  0.0000000  )
        18           C   tau(  18) = (  0.3966980  0.4542000  0.0000000  )
        19           C   tau(  19) = (  0.5116360  0.3876010  0.0000000  )
        20           C   tau(  20) = (  0.6104940  0.4763330  0.0000000  )

     number of k points=     6
                       cart. coord. in units 2pi/alat
        k(    1) = (   0.0000000   0.0000000   0.0000000), wk =   0.2000000
        k(    2) = (   0.0000000   0.0000000   1.2197552), wk =   0.4000000
        k(    3) = (   0.0000000   0.0000000   2.4395103), wk =   0.4000000
        k(    4) = (   0.0000000   0.0000000   3.6592655), wk =   0.4000000
        k(    5) = (   0.0000000   0.0000000   4.8790206), wk =   0.4000000
        k(    6) = (   0.0000000   0.0000000  -6.0987758), wk =   0.2000000

                       cryst. coord.
        k(    1) = (   0.0000000   0.0000000   0.0000000), wk =   0.2000000
        k(    2) = (   0.0000000   0.0000000   0.1000000), wk =   0.4000000
        k(    3) = (   0.0000000   0.0000000   0.2000000), wk =   0.4000000
        k(    4) = (   0.0000000   0.0000000   0.3000000), wk =   0.4000000
        k(    5) = (   0.0000000   0.0000000   0.4000000), wk =   0.4000000
        k(    6) = (   0.0000000   0.0000000  -0.5000000), wk =   0.2000000

     Atomic positions and unit cell read from directory:
     ./tmp/carbon_nanotube.save/

     Check: negative core charge=   -0.000002

     The initial density is read from file :
     ./tmp/carbon_nanotube.save/charge-density

     negative rho (up, down):  4.307E-03 0.000E+00
     Starting wfcs from file
     Checking if some PAW data can be deallocated...

     Self-consistent Calculation

     iteration #  1     ecut=    40.00 Ry     beta= 0.60
     Davidson diagonalization with overlap
     ethr =  1.00E-05,  avg # of iterations =  1.2

     Threshold (ethr) on eigenvalues was too large:
     Diagonalizing with lowered threshold

     Davidson diagonalization with overlap
     ethr =  1.24E-11,  avg # of iterations =  6.2

     negative rho (up, down):  4.307E-03 0.000E+00

     total energy              =    -368.59512567 Ry
     estimated scf accuracy    <       0.00000007 Ry

[...]

     End of self-consistent calculation

          k = 0.0000 0.0000 0.0000 ( 63941 PWs)   bands (ev):

   -23.3545 -23.0818 -23.0817 -22.2859 -22.2858 -20.9921 -20.9921 -19.3148
   -19.3148 -17.6708 -16.7547 -14.8416 -14.8415 -12.4119 -12.4118 -11.4417
   -11.1290 -11.1290 -10.6086 -10.6085 -10.0585  -9.8073  -9.8072  -9.1377
    -9.1376  -9.0885  -9.0884  -8.3078  -8.3078  -8.0076  -8.0075  -7.4970
    -7.4968  -6.9084  -6.9082  -6.6340  -6.5011  -6.5011  -6.3916  -5.2233

     occupation numbers
     1.0000   1.0000   1.0000   1.0000   1.0000   1.0000   1.0000   1.0000
     1.0000   1.0000   1.0000   1.0000   1.0000   1.0000   1.0000   1.0000
     1.0000   1.0000   1.0000   1.0000   1.0000   1.0000   1.0000   1.0000
     1.0000   1.0000   1.0000   1.0000   1.0000   1.0000   1.0000   1.0000
     1.0000   1.0000   1.0000   1.0000   1.0000   1.0000   1.0000   1.0000

[...]

     highest occupied level (ev):    -3.4104

!    total energy              =    -368.59512571 Ry

     total all-electron energy =     -1523.877070 Ry
     estimated scf accuracy    <          1.5E-09 Ry

     The total energy is the sum of the following terms:
     one-electron contribution =   -4545.90325848 Ry
     hartree contribution      =    2283.98849572 Ry
     xc contribution           =     -92.97766694 Ry
     ewald contribution        =    2109.64869290 Ry
     one-center paw contrib.   =    -123.35138891 Ry
      -> PAW hartree energy AE =      47.67810931 Ry
      -> PAW hartree energy PS =     -47.63472499 Ry
      -> PAW xc energy AE      =     -53.42509667 Ry
      -> PAW xc energy PS      =      22.54543457 Ry
      -> total E_H with PAW    =    2284.03188004 Ry
      -> total E_XC with PAW   =    -123.85732904 Ry

     convergence has been achieved in   3 iterations

[...]

     Forces acting on atoms (cartesian axes, Ry/au):

     atom    1 type  1   force =     0.00011009    0.00868668    0.00000000
     atom    2 type  1   force =    -0.00825988    0.00292798    0.00000000
     atom    3 type  1   force =    -0.00531916   -0.00692579    0.00000000
     atom    4 type  1   force =     0.00497739   -0.00713254    0.00000000
     atom    5 type  1   force =     0.00832486    0.00242373    0.00000000
[...]
C             0.4070003150        0.5673833501        0.5000000000
C             0.4071864020        0.4323775108        0.5000000000
C             0.5356243877        0.3908438675        0.5000000000
C             0.6148290027        0.5001498619        0.5000000000
C             0.4878012378        0.6141684733        0.5000000000
C             0.3876395633        0.5236944248        0.5000000000
C             0.4427534477        0.4004670818        0.5000000000
C             0.5769840746        0.4147923743        0.5000000000
C             0.6048218434        0.5468732060        0.5000000000
C             0.4643834782        0.6091365486        0.0000000000
C             0.3851969638        0.4998544646        0.0000000000
C             0.4646664783        0.3907746699        0.0000000000
C             0.5929794579        0.4326267109        0.0000000000
C             0.5927971277        0.5676044051        0.0000000000
C             0.5572299652        0.5995134270        0.0000000000
C             0.4230303149        0.5851906097        0.0000000000
C             0.3952018510        0.4531321478        0.0000000000
C             0.5121971124        0.3858579867        0.0000000000
C             0.6123398442        0.4763119687        0.0000000000

     Writing output data file ./tmp/carbon_nanotube.save/
     NEW-OLD atomic charge density approx. for the potential

     Check: negative core charge=   -0.000002

[...]

     Self-consistent Calculation

[...]

     Threshold (ethr) on eigenvalues was too large:
     Diagonalizing with lowered threshold

     Davidson diagonalization with overlap
     ethr =  1.21E-09,  avg # of iterations =  4.8

[...]

     total energy              =    -368.61239070 Ry
     estimated scf accuracy    <       0.00000001 Ry

     iteration #  5     ecut=    40.00 Ry     beta= 0.60
     Davidson diagonalization with overlap
     ethr =  1.37E-11,  avg # of iterations =  2.2

[...]

     End of self-consistent calculation

[...]

          k = 0.0000 0.0000-6.0988 ( 63698 PWs)   bands (ev):

   -18.8441 -18.8441 -18.6111 -18.6111 -18.6104 -18.6103 -17.9949 -17.9946
   -17.9946 -17.9945 -16.4483 -16.4480 -16.4476 -16.4472 -15.1190 -15.1185
   -15.1177 -15.1170 -14.0449 -14.0446 -12.3211 -12.3193 -11.2540 -11.2533
   -11.2526 -11.2517 -10.1315 -10.1312 -10.1297 -10.1296  -6.3317  -6.3305
    -6.1505  -6.1503  -6.1498  -6.1496  -5.7953  -5.7950  -5.7947  -5.7945

     occupation numbers
     1.0000   1.0000   1.0000   1.0000   1.0000   1.0000   1.0000   1.0000
     1.0000   1.0000   1.0000   1.0000   1.0000   1.0000   1.0000   1.0000
     1.0000   1.0000   1.0000   1.0000   1.0000   1.0000   1.0000   1.0000
     1.0000   1.0000   1.0000   1.0000   1.0000   1.0000   1.0000   1.0000
     1.0000   1.0000   1.0000   1.0000   1.0000   1.0000   1.0000   1.0000

     highest occupied level (ev):    -3.6201

!    total energy              =    -368.61239070 Ry

     total all-electron energy =     -1523.894335 Ry
     estimated scf accuracy    <          1.5E-09 Ry

     The total energy is the sum of the following terms:
     one-electron contribution =   -4472.11051831 Ry
     hartree contribution      =    2247.00440763 Ry
     xc contribution           =     -92.61402727 Ry
     ewald contribution        =    2072.44288303 Ry
     one-center paw contrib.   =    -123.33513578 Ry
      -> PAW hartree energy AE =      47.03488794 Ry
      -> PAW hartree energy PS =     -46.99187898 Ry
      -> PAW xc energy AE      =     -53.26897094 Ry
      -> PAW xc energy PS      =      22.39218795 Ry
      -> total E_H with PAW    =    2247.04741659 Ry
      -> total E_XC with PAW   =    -123.49081026 Ry

     convergence has been achieved in   5 iterations

     negative rho (up, down):  4.009E-03 0.000E+00

     Forces acting on atoms (cartesian axes, Ry/au):

     atom    1 type  1   force =    -0.00032825   -0.00014511    0.00000000
     atom    2 type  1   force =     0.00036108   -0.00009025    0.00000000
     atom    3 type  1   force =     0.00009326    0.00049034    0.00000000
     atom    4 type  1   force =     0.00024953    0.00028807    0.00000000
     atom    5 type  1   force =    -0.00015705   -0.00045815    0.00000000
     atom    6 type  1   force =     0.00040175   -0.00005953    0.00000000
     atom    7 type  1   force =     0.00016582   -0.00028158    0.00000000
     atom    8 type  1   force =     0.00029001    0.00015959    0.00000000
     atom    9 type  1   force =    -0.00046284    0.00006154    0.00000000
     atom   10 type  1   force =    -0.00041344    0.00023264    0.00000000
     atom   11 type  1   force =    -0.00027867    0.00022165    0.00000000
     atom   12 type  1   force =    -0.00032974    0.00029250    0.00000000
     atom   13 type  1   force =    -0.00003914   -0.00024535    0.00000000
     atom   14 type  1   force =     0.00011572   -0.00009101    0.00000000
     atom   15 type  1   force =     0.00023219   -0.00015049    0.00000000
     atom   16 type  1   force =     0.00013824    0.00018837    0.00000000
     atom   17 type  1   force =    -0.00006652    0.00016258    0.00000000
     atom   18 type  1   force =    -0.00007396   -0.00040071    0.00000000
     atom   19 type  1   force =    -0.00025393   -0.00044231    0.00000000
     atom   20 type  1   force =     0.00035593    0.00026720    0.00000000
     The non-local contrib.  to forces
     atom    1 type  1   force =    -0.00262338    0.06168345    0.00000000
     atom    2 type  1   force =    -0.05934934    0.01660661    0.00000000
     atom    3 type  1   force =    -0.03428123   -0.05097081    0.00000000
     atom    4 type  1   force =     0.03861434   -0.04826520    0.00000000
     atom    5 type  1   force =     0.05796640    0.02107005    0.00000000
     atom    6 type  1   force =     0.01544205    0.06002670    0.00000000
     atom    7 type  1   force =    -0.05245341    0.03267965    0.00000000
     atom    8 type  1   force =    -0.04743724   -0.03981891    0.00000000
     atom    9 type  1   force =     0.02291082   -0.05762893    0.00000000
     atom   10 type  1   force =     0.06174387    0.00452228    0.00000000
     atom   11 type  1   force =    -0.03862169    0.04899832    0.00000000
     atom   12 type  1   force =    -0.05861105   -0.02113052    0.00000000
     atom   13 type  1   force =     0.00212528   -0.06220112    0.00000000
     atom   14 type  1   force =     0.05985037   -0.01695724    0.00000000
     atom   15 type  1   force =     0.03479499    0.05132882    0.00000000
     atom   16 type  1   force =     0.04781258    0.04032131    0.00000000
     atom   17 type  1   force =    -0.02359393    0.05789408    0.00000000
     atom   18 type  1   force =    -0.06231162   -0.00482485    0.00000000
     atom   19 type  1   force =    -0.01517082   -0.06069103    0.00000000
     atom   20 type  1   force =     0.05316661   -0.03262216    0.00000000
     The ionic contribution  to forces
     atom    1 type  1   force =     5.38533585   17.05223295    0.00000000
     atom    2 type  1   force =   -14.58387285   10.40364296   -0.00000000
     atom    3 type  1   force =   -14.38502322  -10.67654631    0.00000000
     atom    4 type  1   force =     5.70747125  -16.94730254   -0.00000000
     atom    5 type  1   force =    17.86568540    0.16935526    0.00000000
     atom    6 type  1   force =    -1.76062278   17.77963198    0.00000000
     atom    7 type  1   force =   -17.45619697    3.84557238   -0.00000000
     atom    8 type  1   force =    -9.06718973  -15.43444875   -0.00000000
     atom    9 type  1   force =    11.90179294  -13.38723387    0.00000000
     atom   10 type  1   force =    16.38124847    7.19216431    0.00000000
     atom   11 type  1   force =    -5.70424746   16.93606902   -0.00000000
     atom   12 type  1   force =   -17.85295068   -0.17071491   -0.00000000
     atom   13 type  1   force =    -5.38107696  -17.04174673   -0.00000000
     atom   14 type  1   force =    14.57488638  -10.39614427   -0.00000000
     atom   15 type  1   force =    14.37401991   10.67070110   -0.00000000
     atom   16 type  1   force =     9.06210271   15.42269735   -0.00000000
     atom   17 type  1   force =   -11.89382391   13.37886467   -0.00000000
     atom   18 type  1   force =   -16.37094751   -7.18570324   -0.00000000
     atom   19 type  1   force =     1.75899321  -17.76676709   -0.00000000
     atom   20 type  1   force =    17.44441594   -3.84432427   -0.00000000
     The local contribution  to forces
     atom    1 type  1   force =    -5.38282467  -17.11123598    0.00000000
     atom    2 type  1   force =    14.64080611  -10.41947645    0.00000000
     atom    3 type  1   force =    14.41763066   10.72581223   -0.00000000
     atom    4 type  1   force =    -5.74406562   16.99355483    0.00000000
     atom    5 type  1   force =   -17.92109323   -0.19003219   -0.00000000
     atom    6 type  1   force =     1.74609106  -17.83691829    0.00000000
     atom    7 type  1   force =    17.50623603   -3.87718872    0.00000000
     atom    8 type  1   force =     9.11273392   15.47224854    0.00000000
     atom    9 type  1   force =   -11.92372521   13.44213592    0.00000000
     atom   10 type  1   force =   -16.44034263   -7.19600104   -0.00000000
     atom   11 type  1   force =     5.74084088  -16.98250472    0.00000000
     atom   12 type  1   force =    17.90849918    0.19128618    0.00000000
     atom   13 type  1   force =     5.37869296   17.10086774    0.00000000
     atom   14 type  1   force =   -14.63188028   10.41211882   -0.00000000
     atom   15 type  1   force =   -14.40679337  -10.71998452   -0.00000000
     atom   16 type  1   force =    -9.10764204  -15.46066653    0.00000000
     atom   17 type  1   force =    11.91591182  -13.43384666    0.00000000
     atom   18 type  1   force =    16.43014980    7.18969438   -0.00000000
     atom   19 type  1   force =    -1.74454772   17.82419585    0.00000000
     atom   20 type  1   force =   -17.49465044    3.87591705    0.00000000
     The core correction contribution to forces
     atom    1 type  1   force =    -0.00022192   -0.00280243   -0.00000000
     atom    2 type  1   force =     0.00274969   -0.00086246    0.00000000
     atom    3 type  1   force =     0.00176266    0.00217686   -0.00000000
     atom    4 type  1   force =    -0.00176232    0.00228635   -0.00000000
     atom    5 type  1   force =    -0.00270209   -0.00083178   -0.00000000
     atom    6 type  1   force =    -0.00050647   -0.00277336    0.00000000
     atom    7 type  1   force =     0.00256379   -0.00132582   -0.00000000
     atom    8 type  1   force =     0.00215870    0.00217282    0.00000000
     atom    9 type  1   force =    -0.00143865    0.00277432    0.00000000
     atom   10 type  1   force =    -0.00304361   -0.00045879   -0.00000000
     atom   11 type  1   force =     0.00175634   -0.00231474   -0.00000000
     atom   12 type  1   force =     0.00271848    0.00086917   -0.00000000
     atom   13 type  1   force =     0.00020179    0.00282911    0.00000000
     atom   14 type  1   force =    -0.00273542    0.00088114   -0.00000000
     atom   15 type  1   force =    -0.00177719   -0.00219358    0.00000000
     atom   16 type  1   force =    -0.00213768   -0.00214219    0.00000000
     atom   17 type  1   force =     0.00141925   -0.00274251   -0.00000000
     atom   18 type  1   force =     0.00302750    0.00042375    0.00000000
     atom   19 type  1   force =     0.00048469    0.00280756   -0.00000000
     atom   20 type  1   force =    -0.00256586    0.00130786   -0.00000000
     The Hubbard contrib.    to forces
     atom    1 type  1   force =     0.00000000    0.00000000    0.00000000
     atom    2 type  1   force =     0.00000000    0.00000000    0.00000000
     atom    3 type  1   force =     0.00000000    0.00000000    0.00000000
     atom    4 type  1   force =     0.00000000    0.00000000    0.00000000
     atom    5 type  1   force =     0.00000000    0.00000000    0.00000000
     atom    6 type  1   force =     0.00000000    0.00000000    0.00000000
     atom    7 type  1   force =     0.00000000    0.00000000    0.00000000
     atom    8 type  1   force =     0.00000000    0.00000000    0.00000000
     atom    9 type  1   force =     0.00000000    0.00000000    0.00000000
     atom   10 type  1   force =     0.00000000    0.00000000    0.00000000
     atom   11 type  1   force =     0.00000000    0.00000000    0.00000000
     atom   12 type  1   force =     0.00000000    0.00000000    0.00000000
     atom   13 type  1   force =     0.00000000    0.00000000    0.00000000
     atom   14 type  1   force =     0.00000000    0.00000000    0.00000000
     atom   15 type  1   force =     0.00000000    0.00000000    0.00000000
     atom   16 type  1   force =     0.00000000    0.00000000    0.00000000
     atom   17 type  1   force =     0.00000000    0.00000000    0.00000000
     atom   18 type  1   force =     0.00000000    0.00000000    0.00000000
     atom   19 type  1   force =     0.00000000    0.00000000    0.00000000
     atom   20 type  1   force =     0.00000000    0.00000000    0.00000000
     The SCF correction term to forces
     atom    1 type  1   force =     0.00000335   -0.00001925    0.00000000
     atom    2 type  1   force =     0.00002495    0.00000293    0.00000000
     atom    3 type  1   force =     0.00000187    0.00002221    0.00000000
     atom    4 type  1   force =    -0.00001064    0.00001846    0.00000000
     atom    5 type  1   force =    -0.00001604   -0.00001566    0.00000000
     atom    6 type  1   force =    -0.00000463   -0.00002273    0.00000000
     atom    7 type  1   force =     0.00001386   -0.00001523    0.00000000
     atom    8 type  1   force =     0.00002185    0.00000973    0.00000000
     atom    9 type  1   force =    -0.00000527    0.00001794    0.00000000
     atom   10 type  1   force =    -0.00002206    0.00000971    0.00000000
     atom   11 type  1   force =    -0.00000926   -0.00002241   -0.00000000
     atom   12 type  1   force =     0.00001181   -0.00001360   -0.00000000
     atom   13 type  1   force =     0.00001528    0.00000947   -0.00000000
     atom   14 type  1   force =    -0.00000785    0.00001438   -0.00000000
     atom   15 type  1   force =    -0.00001466    0.00000153   -0.00000000
     atom   16 type  1   force =     0.00000015   -0.00001774   -0.00000000
     atom   17 type  1   force =     0.00001773   -0.00000316   -0.00000000
     atom   18 type  1   force =     0.00000534    0.00001309   -0.00000000
     atom   19 type  1   force =    -0.00001581    0.00001624   -0.00000000
     atom   20 type  1   force =    -0.00001284   -0.00000744   -0.00000000

     Total force =     0.001706     Total SCF correction =     0.000091
     Energy error            =      5.0E-06
     Gradient error          =      4.9E-04

     bfgs converged in   8 scf cycles and   7 bfgs steps
     (criteria: energy <  1.0E-04 Ry, force <  1.0E-03 Ry/Bohr)

     End of BFGS Geometry Optimization

     Final energy   =    -368.6123906954 Ry

     File ./tmp/carbon_nanotube.bfgs deleted, as requested
Begin final coordinates

ATOMIC_POSITIONS (crystal)
C             0.5353381323        0.6092469104        0.5000000000
C             0.4070003150        0.5673833501        0.5000000000
C             0.4071864020        0.4323775108        0.5000000000
C             0.5356243877        0.3908438675        0.5000000000
C             0.6148290027        0.5001498619        0.5000000000
C             0.4878012378        0.6141684733        0.5000000000
C             0.3876395633        0.5236944248        0.5000000000
C             0.4427534477        0.4004670818        0.5000000000
C             0.5769840746        0.4147923743        0.5000000000
C             0.6048218434        0.5468732060        0.5000000000
C             0.4643834782        0.6091365486        0.0000000000
C             0.3851969638        0.4998544646        0.0000000000
C             0.4646664783        0.3907746699        0.0000000000
C             0.5929794579        0.4326267109        0.0000000000
C             0.5927971277        0.5676044051        0.0000000000
C             0.5572299652        0.5995134270        0.0000000000
C             0.4230303149        0.5851906097        0.0000000000
C             0.3952018510        0.4531321478        0.0000000000
C             0.5121971124        0.3858579867        0.0000000000
C             0.6123398442        0.4763119687        0.0000000000
End final coordinates

     Writing output data file ./tmp/carbon_nanotube.save/

     General routines

     Parallel routines

     PAW routines

   This run was terminated on:  15:35:51   1Sep2024

   JOB DONE.