     Program PWSCF v.6.7MaX starts on  1Sep2024 at 11:38:13

     R & G space division:  proc/nbgrp/npool/nimage =       4
     Reading input from carbon_nanotube_SCF1.in

     Current dimensions of program PWSCF are:
     Max number of different atomic species (ntypx) = 10
     Max number of k-points (npk) =  40000
     Max angular momentum in pseudopotentials (lmaxx) =  3

     Message from routine set_vdw_corr:
     WARNING: unknown vdw correction (vdw_corr): rVV10. No vdw correction used.

     file C.pbe-n-kjpaw_psl.1.0.0.UPF: wavefunction(s)  2S 2P renormalized

     IMPORTANT: XC functional enforced from input :
     Exchange-correlation= PBE
                           (   1   4   3   4   0   0   0)
     Any further DFT definition will be discarded
     Please, verify this is what you really want

     bravais-lattice index     =            6
     lattice parameter (alat)  =      56.6918  a.u.
     unit-cell volume          =   14937.8366 (a.u.)^3
     number of atoms/cell      =           20
     number of atomic types    =            1
     number of electrons       =        80.00
     number of Kohn-Sham states=           40
     kinetic-energy cutoff     =      40.0000  Ry
     charge density cutoff     =     326.0000  Ry
     scf convergence threshold =      1.0E-08
     mixing beta               =       0.6000
     number of iterations used =            8  plain     mixing
     Exchange-correlation= PBE
                           (   1   4   3   4   0   0   0)

     celldm(1)=  56.691784  celldm(2)=   0.000000  celldm(3)=   0.081984
     celldm(4)=   0.000000  celldm(5)=   0.000000  celldm(6)=   0.000000

     crystal axes: (cart. coord. in units of alat)
               a(1) = (   1.000000   0.000000   0.000000 )
               a(2) = (   0.000000   1.000000   0.000000 )
               a(3) = (   0.000000   0.000000   0.081984 )

     reciprocal axes: (cart. coord. in units 2 pi/alat)
               b(1) = (  1.000000  0.000000  0.000000 )
               b(2) = (  0.000000  1.000000  0.000000 )
               b(3) = (  0.000000  0.000000 12.197552 )

     PseudoPot. # 1 for C  read from file:
     /home/alessandro_rotondi/q-e/pseudo/C.pbe-n-kjpaw_psl.1.0.0.UPF
     MD5 check sum: 5f16ad9a65e90284d1d834d4ab3b0f7d
     Pseudo is Projector augmented-wave + core cor, Zval =  4.0
     Generated using &quot;atomic&quot; code by A. Dal Corso  v.6.3
     Shape of augmentation charge: PSQ
     Using radial grid of 1073 points,  4 beta functions with:
                l(1) =   0
                l(2) =   0
                l(3) =   1
                l(4) =   1
     Q(r) pseudized with 0 coefficients

     atomic species   valence    mass     pseudopotential
        C              4.00    12.01070     C ( 1.00)

      2 Sym. Ops. (no inversion) found

                                    s                        frac. trans.

      isym =  1     identity

 cryst.   s( 1) = (     1          0          0      )
                  (     0          1          0      )
                  (     0          0          1      )

 cart.    s( 1) = (  1.0000000  0.0000000  0.0000000 )
                  (  0.0000000  1.0000000  0.0000000 )
                  (  0.0000000  0.0000000  1.0000000 )

      isym =  2     inv. 180 deg rotation - cart. axis [0,0,1]

 cryst.   s( 2) = (     1          0          0      )
                  (     0          1          0      )
                  (     0          0         -1      )

 cart.    s( 2) = (  1.0000000  0.0000000  0.0000000 )
                  (  0.0000000  1.0000000  0.0000000 )
                  (  0.0000000  0.0000000 -1.0000000 )

     point group C_s (m)
     there are  2 classes
     the character table:

       E     s
A'     1.00  1.00
A''    1.00 -1.00

     the symmetry operations in each class and the name of the first element:

     E        1
          identity
     s        2
          inv. 180 deg rotation - cart. axis [0,0,1]

   Cartesian axes

     site n.     atom                  positions (alat units)
         1           C   tau(   1) = (   0.5349190   0.6074690   0.0409918  )
         2           C   tau(   2) = (   0.4085810   0.5664200   0.0409918  )
         3           C   tau(   3) = (   0.4085810   0.4335800   0.0409918  )
         4           C   tau(   4) = (   0.5349190   0.3925310   0.0409918  )
         5           C   tau(   5) = (   0.6130000   0.5000000   0.0409918  )
         6           C   tau(   6) = (   0.4878370   0.6123440   0.0409918  )
         7           C   tau(   7) = (   0.3893960   0.5231490   0.0409918  )
         8           C   tau(   8) = (   0.4438060   0.4019630   0.0409918  )
         9           C   tau(   9) = (   0.5758740   0.4162610   0.0409918  )
        10           C   tau(  10) = (   0.6030870   0.5462840   0.0409918  )
        11           C   tau(  11) = (   0.4645780   0.6073050   0.0000000  )
        12           C   tau(  12) = (   0.3870010   0.4994700   0.0000000  )
        13           C   tau(  13) = (   0.4655850   0.3923680   0.0000000  )
        14           C   tau(  14) = (   0.5917290   0.4340090   0.0000000  )
        15           C   tau(  15) = (   0.5911070   0.5668480   0.0000000  )
        16           C   tau(  16) = (   0.5566530   0.5977720   0.0000000  )
        17           C   tau(  17) = (   0.4245200   0.5840930   0.0000000  )
        18           C   tau(  18) = (   0.3966980   0.4542000   0.0000000  )
        19           C   tau(  19) = (   0.5116360   0.3876010   0.0000000  )
        20           C   tau(  20) = (   0.6104940   0.4763330   0.0000000  )

   Crystallographic axes

     site n.     atom                  positions (cryst. coord.)
         1           C   tau(   1) = (  0.5349190  0.6074690  0.5000000  )
         2           C   tau(   2) = (  0.4085810  0.5664200  0.5000000  )
         3           C   tau(   3) = (  0.4085810  0.4335800  0.5000000  )
         4           C   tau(   4) = (  0.5349190  0.3925310  0.5000000  )
         5           C   tau(   5) = (  0.6130000  0.5000000  0.5000000  )
         6           C   tau(   6) = (  0.4878370  0.6123440  0.5000000  )
         7           C   tau(   7) = (  0.3893960  0.5231490  0.5000000  )
         8           C   tau(   8) = (  0.4438060  0.4019630  0.5000000  )
         9           C   tau(   9) = (  0.5758740  0.4162610  0.5000000  )
        10           C   tau(  10) = (  0.6030870  0.5462840  0.5000000  )
        11           C   tau(  11) = (  0.4645780  0.6073050  0.0000000  )
        12           C   tau(  12) = (  0.3870010  0.4994700  0.0000000  )
        13           C   tau(  13) = (  0.4655850  0.3923680  0.0000000  )
        14           C   tau(  14) = (  0.5917290  0.4340090  0.0000000  )
        15           C   tau(  15) = (  0.5911070  0.5668480  0.0000000  )
        16           C   tau(  16) = (  0.5566530  0.5977720  0.0000000  )
        17           C   tau(  17) = (  0.4245200  0.5840930  0.0000000  )
        18           C   tau(  18) = (  0.3966980  0.4542000  0.0000000  )
        19           C   tau(  19) = (  0.5116360  0.3876010  0.0000000  )
        20           C   tau(  20) = (  0.6104940  0.4763330  0.0000000  )

     number of k points=    24
                       cart. coord. in units 2pi/alat
        k(    1) = (   0.0000000   0.0000000   0.0000000), wk =   0.0500000
        k(    2) = (   0.0000000   0.0000000   1.2197552), wk =   0.1000000
        k(    3) = (   0.0000000   0.0000000   2.4395103), wk =   0.1000000
        k(    4) = (   0.0000000   0.0000000   3.6592655), wk =   0.1000000
        k(    5) = (   0.0000000   0.0000000   4.8790206), wk =   0.1000000
        k(    6) = (   0.0000000   0.0000000  -6.0987758), wk =   0.0500000
        k(    7) = (   0.0000000  -0.5000000   0.0000000), wk =   0.0500000
        k(    8) = (   0.0000000  -0.5000000   1.2197552), wk =   0.1000000
        k(    9) = (   0.0000000  -0.5000000   2.4395103), wk =   0.1000000
        k(   10) = (   0.0000000  -0.5000000   3.6592655), wk =   0.1000000
        k(   11) = (   0.0000000  -0.5000000   4.8790206), wk =   0.1000000
        k(   12) = (   0.0000000  -0.5000000  -6.0987758), wk =   0.0500000
        k(   13) = (  -0.5000000  -0.5000000   0.0000000), wk =   0.0500000
        k(   14) = (  -0.5000000  -0.5000000   1.2197552), wk =   0.1000000
        k(   15) = (  -0.5000000  -0.5000000   2.4395103), wk =   0.1000000
        k(   16) = (  -0.5000000  -0.5000000   3.6592655), wk =   0.1000000
        k(   17) = (  -0.5000000  -0.5000000   4.8790206), wk =   0.1000000
        k(   18) = (  -0.5000000  -0.5000000  -6.0987758), wk =   0.0500000
        k(   19) = (  -0.5000000   0.0000000   0.0000000), wk =   0.0500000
        k(   20) = (  -0.5000000   0.0000000  -1.2197552), wk =   0.1000000
        k(   21) = (  -0.5000000   0.0000000  -2.4395103), wk =   0.1000000
        k(   22) = (  -0.5000000   0.0000000  -3.6592655), wk =   0.1000000
        k(   23) = (  -0.5000000   0.0000000  -4.8790206), wk =   0.1000000
        k(   24) = (  -0.5000000   0.0000000   6.0987758), wk =   0.0500000

                       cryst. coord.
        k(    1) = (   0.0000000   0.0000000   0.0000000), wk =   0.0500000
        k(    2) = (   0.0000000   0.0000000   0.1000000), wk =   0.1000000
        k(    3) = (   0.0000000   0.0000000   0.2000000), wk =   0.1000000
        k(    4) = (   0.0000000   0.0000000   0.3000000), wk =   0.1000000
        k(    5) = (   0.0000000   0.0000000   0.4000000), wk =   0.1000000
        k(    6) = (   0.0000000   0.0000000  -0.5000000), wk =   0.0500000
        k(    7) = (   0.0000000  -0.5000000   0.0000000), wk =   0.0500000
        k(    8) = (   0.0000000  -0.5000000   0.1000000), wk =   0.1000000
        k(    9) = (   0.0000000  -0.5000000   0.2000000), wk =   0.1000000
        k(   10) = (   0.0000000  -0.5000000   0.3000000), wk =   0.1000000
        k(   11) = (   0.0000000  -0.5000000   0.4000000), wk =   0.1000000
        k(   12) = (   0.0000000  -0.5000000  -0.5000000), wk =   0.0500000
        k(   13) = (  -0.5000000  -0.5000000   0.0000000), wk =   0.0500000
        k(   14) = (  -0.5000000  -0.5000000   0.1000000), wk =   0.1000000
        k(   15) = (  -0.5000000  -0.5000000   0.2000000), wk =   0.1000000
        k(   16) = (  -0.5000000  -0.5000000   0.3000000), wk =   0.1000000
        k(   17) = (  -0.5000000  -0.5000000   0.4000000), wk =   0.1000000
        k(   18) = (  -0.5000000  -0.5000000  -0.5000000), wk =   0.0500000
        k(   19) = (  -0.5000000   0.0000000   0.0000000), wk =   0.0500000
        k(   20) = (  -0.5000000   0.0000000  -0.1000000), wk =   0.1000000
        k(   21) = (  -0.5000000   0.0000000  -0.2000000), wk =   0.1000000
        k(   22) = (  -0.5000000   0.0000000  -0.3000000), wk =   0.1000000
        k(   23) = (  -0.5000000   0.0000000  -0.4000000), wk =   0.1000000
        k(   24) = (  -0.5000000   0.0000000   0.5000000), wk =   0.0500000

     Check: negative core charge=   -0.000002

     Initial potential from superposition of free atoms

     starting charge   79.99917, renormalised to   80.00000

     negative rho (up, down):  1.455E-03 0.000E+00
     Starting wfcs are   80 randomized atomic wfcs
     Checking if some PAW data can be deallocated...

     Self-consistent Calculation

     iteration #  1     ecut=    40.00 Ry     beta= 0.60
     Davidson diagonalization with overlap
     ethr =  1.00E-02,  avg # of iterations =  2.0

     negative rho (up, down):  3.037E-03 0.000E+00

     total energy              =    -368.37380675 Ry
     estimated scf accuracy    <       2.02942861 Ry

[...]

     total energy              =    -368.59511549 Ry
     estimated scf accuracy    <       0.00000005 Ry

     iteration #  9     ecut=    40.00 Ry     beta= 0.60
     Davidson diagonalization with overlap
     ethr =  6.37E-11,  avg # of iterations =  4.8

     negative rho (up, down):  4.307E-03 0.000E+00

     End of self-consistent calculation

          k = 0.0000 0.0000 0.0000 ( 63941 PWs)   bands (ev):

   -23.3544 -23.0817 -23.0816 -22.2858 -22.2857 -20.9921 -20.9920 -19.3147
   -19.3147 -17.6707 -16.7547 -14.8415 -14.8415 -12.4118 -12.4118 -11.4417
   -11.1290 -11.1289 -10.6085 -10.6084 -10.0584  -9.8072  -9.8071  -9.1376
    -9.1376  -9.0884  -9.0883  -8.3077  -8.3077  -8.0075  -8.0074  -7.4969
    -7.4967  -6.9083  -6.9082  -6.6339  -6.5010  -6.5010  -6.3915  -5.2233

     occupation numbers
     1.0000   1.0000   1.0000   1.0000   1.0000   1.0000   1.0000   1.0000
     1.0000   1.0000   1.0000   1.0000   1.0000   1.0000   1.0000   1.0000
     1.0000   1.0000   1.0000   1.0000   1.0000   1.0000   1.0000   1.0000
     1.0000   1.0000   1.0000   1.0000   1.0000   1.0000   1.0000   1.0000
     1.0000   1.0000   1.0000   1.0000   1.0000   1.0000   1.0000   1.0000

[...]

          k = 0.0000-0.5000-6.0988 ( 63732 PWs)   bands (ev):

[...]

          k =-0.5000-0.5000 0.0000 ( 64064 PWs)   bands (ev):

[...]

          k =-0.5000 0.0000 6.0988 ( 63732 PWs)   bands (ev):

   -19.0665 -18.9782 -18.8318 -18.8317 -18.7298 -18.7297 -18.2339 -18.2338
   -18.0577 -18.0574 -16.5461 -16.5460 -16.4681 -16.4680 -15.1166 -15.1166
   -15.1082 -15.1081 -13.9204 -13.8884 -12.5360 -12.4322 -11.3481 -11.3481
   -11.2195 -11.2194 -10.1896 -10.1894 -10.0182 -10.0180  -6.5167  -6.3930
    -6.3315  -6.3315  -6.1966  -6.1966  -5.9733  -5.9731  -5.8085  -5.8083

     occupation numbers
     1.0000   1.0000   1.0000   1.0000   1.0000   1.0000   1.0000   1.0000
     1.0000   1.0000   1.0000   1.0000   1.0000   1.0000   1.0000   1.0000
     1.0000   1.0000   1.0000   1.0000   1.0000   1.0000   1.0000   1.0000
     1.0000   1.0000   1.0000   1.0000   1.0000   1.0000   1.0000   1.0000
     1.0000   1.0000   1.0000   1.0000   1.0000   1.0000   1.0000   1.0000

     highest occupied level (ev):    -3.4103

!    total energy              =    -368.59511550 Ry

     total all-electron energy =     -1523.877060 Ry
     estimated scf accuracy    <          7.0E-09 Ry

     The total energy is the sum of the following terms:
     one-electron contribution =   -4545.90314474 Ry
     hartree contribution      =    2283.98837404 Ry
     xc contribution           =     -92.97764544 Ry
     ewald contribution        =    2109.64869290 Ry
     one-center paw contrib.   =    -123.35139226 Ry
      -> PAW hartree energy AE =      47.67787578 Ry
      -> PAW hartree energy PS =     -47.63449125 Ry
      -> PAW xc energy AE      =     -53.42504365 Ry
      -> PAW xc energy PS      =      22.54537961 Ry
      -> total E_H with PAW    =    2284.03175857 Ry
      -> total E_XC with PAW   =    -123.85730948 Ry

     convergence has been achieved in   9 iterations

     Writing output data file ./tmp/carbon_nanotube.save/

     General routines

     Parallel routines

     PAW routines

   This run was terminated on:  12:19:41   1Sep2024

   JOB DONE.