     Program PWSCF v.6.7MaX starts on  8Sep2024 at 18:33:56

     R & G space division:  proc/nbgrp/npool/nimage =       4
     Reading input from ZnO_SCF2.inp

     Current dimensions of program PWSCF are:
     Max number of different atomic species (ntypx) = 10
     Max number of k-points (npk) =  40000
     Max angular momentum in pseudopotentials (lmaxx) =  3
     file Zn.pbe-dnl-kjpaw_psl.1.0.0.UPF: wavefunction(s)  4S 3D renormalized
     file O.pbe-n-kjpaw_psl.1.0.0.UPF: wavefunction(s)  2S 2P renormalized

     IMPORTANT: XC functional enforced from input :
     Exchange-correlation= PBE
                           (   1   4   3   4   0   0   0)
     Any further DFT definition will be discarded
     Please, verify this is what you really want

     Found symmetry operation: I + (  0.0000 -0.5000 -0.5000)
     This is a supercell, fractional translations are disabled

     bravais-lattice index     =            1
     lattice parameter (alat)  =       8.6143  a.u.
     unit-cell volume          =     639.2421 (a.u.)^3
     number of atoms/cell      =            8
     number of atomic types    =            2
     number of electrons       =        72.00
     number of Kohn-Sham states=           36
     kinetic-energy cutoff     =      47.0000  Ry
     charge density cutoff     =     323.0000  Ry
     scf convergence threshold =      1.0E-10
     mixing beta               =       0.5000
     number of iterations used =            8  plain     mixing
     Exchange-correlation= PBE
                           (   1   4   3   4   0   0   0)

     celldm(1)=   8.614335  celldm(2)=   0.000000  celldm(3)=   0.000000
     celldm(4)=   0.000000  celldm(5)=   0.000000  celldm(6)=   0.000000

     crystal axes: (cart. coord. in units of alat)
               a(1) = (   1.000000   0.000000   0.000000 )
               a(2) = (   0.000000   1.000000   0.000000 )
               a(3) = (   0.000000   0.000000   1.000000 )

     reciprocal axes: (cart. coord. in units 2 pi/alat)
               b(1) = (  1.000000  0.000000  0.000000 )
               b(2) = (  0.000000  1.000000  0.000000 )
               b(3) = (  0.000000  0.000000  1.000000 )

     PseudoPot. # 1 for Zn read from file:
     /home/alessandro_rotondi/q-e/pseudo/Zn.pbe-dnl-kjpaw_psl.1.0.0.UPF
     MD5 check sum: c608214d9520ac179f507641260889e3
     Pseudo is Projector augmented-wave + core cor, Zval = 12.0
     Generated using &quot;atomic&quot; code by A. Dal Corso  v.6.2.2
     Shape of augmentation charge: PSQ
     Using radial grid of 1201 points,  6 beta functions with:
                l(1) =   0
                l(2) =   0
                l(3) =   1
                l(4) =   1
                l(5) =   2
                l(6) =   2
     Q(r) pseudized with 0 coefficients

     PseudoPot. # 2 for O  read from file:
     /home/alessandro_rotondi/q-e/pseudo/O.pbe-n-kjpaw_psl.1.0.0.UPF
     MD5 check sum: e99d9cef9b487d1ca56f5b95ecd0fd7a
     Pseudo is Projector augmented-wave + core cor, Zval =  6.0
     Generated using &quot;atomic&quot; code by A. Dal Corso  v.6.3
     Shape of augmentation charge: PSQ
     Using radial grid of 1095 points,  4 beta functions with:
                l(1) =   0
                l(2) =   0
                l(3) =   1
                l(4) =   1
     Q(r) pseudized with 0 coefficients

     atomic species   valence    mass     pseudopotential
        Zn            12.00    65.39000     Zn( 1.00)
        O              6.00    15.99940     O ( 1.00)

     24 Sym. Ops. (no inversion) found

                                    s                        frac. trans.

      isym =  1     identity

 cryst.   s( 1) = (     1          0          0      )
                  (     0          1          0      )
                  (     0          0          1      )

 cart.    s( 1) = (  1.0000000  0.0000000  0.0000000 )
                  (  0.0000000  1.0000000  0.0000000 )
                  (  0.0000000  0.0000000  1.0000000 )

      isym =  2     180 deg rotation - cart. axis [0,0,1]

[...]

 cryst.   s( 9) = (     0          1          0      )
                  (     0          0          1      )
                  (     1          0          0      )

 cart.    s( 9) = (  0.0000000  0.0000000  1.0000000 )
                  (  1.0000000  0.0000000  0.0000000 )
                  (  0.0000000  1.0000000  0.0000000 )

[...]

 cryst.   s(10) = (     0         -1          0      )
                  (     0          0         -1      )
                  (     1          0          0      )

 cart.    s(10) = (  0.0000000  0.0000000  1.0000000 )
                  ( -1.0000000  0.0000000  0.0000000 )
                  (  0.0000000 -1.0000000  0.0000000 )

[...]

      isym = 12     120 deg rotation - cart. axis [-1,-1,1]

[...]

      isym = 13     inv. 180 deg rotation - cart. axis [1,1,0]

[...]

      isym = 24     inv.  90 deg rotation - cart. axis [1,0,0]

 cryst.   s(24) = (    -1          0          0      )
                  (     0          0         -1      )
                  (     0          1          0      )

 cart.    s(24) = ( -1.0000000  0.0000000  0.0000000 )
                  (  0.0000000  0.0000000  1.0000000 )
                  (  0.0000000 -1.0000000  0.0000000 )

     point group T_d (-43m)
     there are  5 classes
     the character table:

       E     8C3   3C2   6S4   6s_d
A_1    1.00  1.00  1.00  1.00  1.00
A_2    1.00  1.00  1.00 -1.00 -1.00
E      2.00 -1.00  2.00  0.00  0.00
T_1    3.00  0.00 -1.00  1.00 -1.00
T_2    3.00  0.00 -1.00 -1.00  1.00

     the symmetry operations in each class and the name of the first element:

     E        1
          identity
     8C3      5    7    8    6   12    9   10   11
          120 deg rotation - cart. axis [-1,-1,-1]
     3C2      2    3    4
          180 deg rotation - cart. axis [0,0,1]
     6S4     15   16   20   19   23   24
          inv.  90 deg rotation - cart. axis [0,0,-1]
     6s_d    13   14   17   18   21   22
          inv. 180 deg rotation - cart. axis [1,1,0]

   Cartesian axes

     site n.     atom                  positions (alat units)
         1           Zn  tau(   1) = (   0.0000000   0.0000000   0.0000000  )
         2           Zn  tau(   2) = (   0.0000000   0.5000000   0.5000000  )
         3           Zn  tau(   3) = (   0.5000000   0.0000000   0.5000000  )
         4           Zn  tau(   4) = (   0.5000000   0.5000000   0.0000000  )
         5           O   tau(   5) = (   0.7500000   0.7500000   0.7500000  )
         6           O   tau(   6) = (   0.7500000   0.2500000   0.2500000  )
         7           O   tau(   7) = (   0.2500000   0.7500000   0.2500000  )
         8           O   tau(   8) = (   0.2500000   0.2500000   0.7500000  )

   Crystallographic axes

     site n.     atom                  positions (cryst. coord.)
         1           Zn  tau(   1) = (  0.0000000  0.0000000  0.0000000  )
         2           Zn  tau(   2) = (  0.0000000  0.5000000  0.5000000  )
         3           Zn  tau(   3) = (  0.5000000  0.0000000  0.5000000  )
         4           Zn  tau(   4) = (  0.5000000  0.5000000  0.0000000  )
         5           O   tau(   5) = (  0.7500000  0.7500000  0.7500000  )
         6           O   tau(   6) = (  0.7500000  0.2500000  0.2500000  )
         7           O   tau(   7) = (  0.2500000  0.7500000  0.2500000  )
         8           O   tau(   8) = (  0.2500000  0.2500000  0.7500000  )

     number of k points=    84
                       cart. coord. in units 2pi/alat
        k(    1) = (   0.0000000   0.0000000   0.0000000), wk =   0.0011574
        k(    2) = (   0.0000000   0.0000000   0.0833333), wk =   0.0069444
        k(    3) = (   0.0000000   0.0000000   0.1666667), wk =   0.0069444
        k(    4) = (   0.0000000   0.0000000   0.2500000), wk =   0.0069444
        k(    5) = (   0.0000000   0.0000000   0.3333333), wk =   0.0069444
        k(    6) = (   0.0000000   0.0000000   0.4166667), wk =   0.0069444
        k(    7) = (   0.0000000   0.0000000  -0.5000000), wk =   0.0034722
        k(    8) = (   0.0000000   0.0833333   0.0833333), wk =   0.0138889
        k(    9) = (   0.0000000   0.0833333   0.1666667), wk =   0.0277778
        k(   10) = (   0.0000000   0.0833333   0.2500000), wk =   0.0277778
        k(   11) = (   0.0000000   0.0833333   0.3333333), wk =   0.0277778
        k(   12) = (   0.0000000   0.0833333   0.4166667), wk =   0.0277778
        k(   13) = (   0.0000000   0.0833333  -0.5000000), wk =   0.0138889
        k(   14) = (   0.0000000   0.1666667   0.1666667), wk =   0.0138889
        k(   15) = (   0.0000000   0.1666667   0.2500000), wk =   0.0277778
        k(   16) = (   0.0000000   0.1666667   0.3333333), wk =   0.0277778
        k(   17) = (   0.0000000   0.1666667   0.4166667), wk =   0.0277778
        k(   18) = (   0.0000000   0.1666667  -0.5000000), wk =   0.0138889
        k(   19) = (   0.0000000   0.2500000   0.2500000), wk =   0.0138889
        k(   20) = (   0.0000000   0.2500000   0.3333333), wk =   0.0277778
        k(   21) = (   0.0000000   0.2500000   0.4166667), wk =   0.0277778
        k(   22) = (   0.0000000   0.2500000  -0.5000000), wk =   0.0138889
        k(   23) = (   0.0000000   0.3333333   0.3333333), wk =   0.0138889
        k(   24) = (   0.0000000   0.3333333   0.4166667), wk =   0.0277778
        k(   25) = (   0.0000000   0.3333333  -0.5000000), wk =   0.0138889
        k(   26) = (   0.0000000   0.4166667   0.4166667), wk =   0.0138889
        k(   27) = (   0.0000000   0.4166667  -0.5000000), wk =   0.0138889
        k(   28) = (   0.0000000  -0.5000000  -0.5000000), wk =   0.0034722
        k(   29) = (   0.0833333   0.0833333   0.0833333), wk =   0.0092593
        k(   30) = (   0.0833333   0.0833333   0.1666667), wk =   0.0277778
        k(   31) = (   0.0833333   0.0833333   0.2500000), wk =   0.0277778
        k(   32) = (   0.0833333   0.0833333   0.3333333), wk =   0.0277778
        k(   33) = (   0.0833333   0.0833333   0.4166667), wk =   0.0277778
        k(   34) = (   0.0833333   0.0833333  -0.5000000), wk =   0.0138889
        k(   35) = (   0.0833333   0.1666667   0.1666667), wk =   0.0277778
        k(   36) = (   0.0833333   0.1666667   0.2500000), wk =   0.0555556
        k(   37) = (   0.0833333   0.1666667   0.3333333), wk =   0.0555556
        k(   38) = (   0.0833333   0.1666667   0.4166667), wk =   0.0555556
        k(   39) = (   0.0833333   0.1666667  -0.5000000), wk =   0.0277778
        k(   40) = (   0.0833333   0.2500000   0.2500000), wk =   0.0277778
        k(   41) = (   0.0833333   0.2500000   0.3333333), wk =   0.0555556
        k(   42) = (   0.0833333   0.2500000   0.4166667), wk =   0.0555556
        k(   43) = (   0.0833333   0.2500000  -0.5000000), wk =   0.0277778
        k(   44) = (   0.0833333   0.3333333   0.3333333), wk =   0.0277778
        k(   45) = (   0.0833333   0.3333333   0.4166667), wk =   0.0555556
        k(   46) = (   0.0833333   0.3333333  -0.5000000), wk =   0.0277778
        k(   47) = (   0.0833333   0.4166667   0.4166667), wk =   0.0277778
        k(   48) = (   0.0833333   0.4166667  -0.5000000), wk =   0.0277778
[...]
        k(   58) = (   0.1666667   0.2500000  -0.5000000), wk =   0.0277778
        k(   59) = (   0.1666667   0.3333333   0.3333333), wk =   0.0277778
        k(   60) = (   0.1666667   0.3333333   0.4166667), wk =   0.0555556
[...]
        k(   70) = (   0.2500000   0.3333333   0.4166667), wk =   0.0555556
        k(   71) = (   0.2500000   0.3333333  -0.5000000), wk =   0.0277778
        k(   72) = (   0.2500000   0.4166667   0.4166667), wk =   0.0277778
        k(   73) = (   0.2500000   0.4166667  -0.5000000), wk =   0.0277778
        k(   74) = (   0.2500000  -0.5000000  -0.5000000), wk =   0.0069444
        k(   75) = (   0.3333333   0.3333333   0.3333333), wk =   0.0092593
        k(   76) = (   0.3333333   0.3333333   0.4166667), wk =   0.0277778
        k(   77) = (   0.3333333   0.3333333  -0.5000000), wk =   0.0138889
        k(   78) = (   0.3333333   0.4166667   0.4166667), wk =   0.0277778
        k(   79) = (   0.3333333   0.4166667  -0.5000000), wk =   0.0277778
        k(   80) = (   0.3333333  -0.5000000  -0.5000000), wk =   0.0069444
        k(   81) = (   0.4166667   0.4166667   0.4166667), wk =   0.0092593
        k(   82) = (   0.4166667   0.4166667  -0.5000000), wk =   0.0138889
        k(   83) = (   0.4166667  -0.5000000  -0.5000000), wk =   0.0069444
        k(   84) = (  -0.5000000  -0.5000000  -0.5000000), wk =   0.0011574

                       cryst. coord.
        k(    1) = (   0.0000000   0.0000000   0.0000000), wk =   0.0011574
        k(    2) = (   0.0000000   0.0000000   0.0833333), wk =   0.0069444
        k(    3) = (   0.0000000   0.0000000   0.1666667), wk =   0.0069444
        k(    4) = (   0.0000000   0.0000000   0.2500000), wk =   0.0069444
        k(    5) = (   0.0000000   0.0000000   0.3333333), wk =   0.0069444
        k(    6) = (   0.0000000   0.0000000   0.4166667), wk =   0.0069444
        k(    7) = (   0.0000000   0.0000000  -0.5000000), wk =   0.0034722
        k(    8) = (   0.0000000   0.0833333   0.0833333), wk =   0.0138889
        k(    9) = (   0.0000000   0.0833333   0.1666667), wk =   0.0277778
        k(   10) = (   0.0000000   0.0833333   0.2500000), wk =   0.0277778
        k(   11) = (   0.0000000   0.0833333   0.3333333), wk =   0.0277778
        k(   12) = (   0.0000000   0.0833333   0.4166667), wk =   0.0277778
        k(   13) = (   0.0000000   0.0833333  -0.5000000), wk =   0.0138889
        k(   14) = (   0.0000000   0.1666667   0.1666667), wk =   0.0138889
        k(   15) = (   0.0000000   0.1666667   0.2500000), wk =   0.0277778
        k(   16) = (   0.0000000   0.1666667   0.3333333), wk =   0.0277778
        k(   17) = (   0.0000000   0.1666667   0.4166667), wk =   0.0277778
        k(   18) = (   0.0000000   0.1666667  -0.5000000), wk =   0.0138889
        k(   19) = (   0.0000000   0.2500000   0.2500000), wk =   0.0138889
        k(   20) = (   0.0000000   0.2500000   0.3333333), wk =   0.0277778
        k(   21) = (   0.0000000   0.2500000   0.4166667), wk =   0.0277778
        k(   22) = (   0.0000000   0.2500000  -0.5000000), wk =   0.0138889
        k(   23) = (   0.0000000   0.3333333   0.3333333), wk =   0.0138889
        k(   24) = (   0.0000000   0.3333333   0.4166667), wk =   0.0277778
        k(   25) = (   0.0000000   0.3333333  -0.5000000), wk =   0.0138889
        k(   26) = (   0.0000000   0.4166667   0.4166667), wk =   0.0138889
        k(   27) = (   0.0000000   0.4166667  -0.5000000), wk =   0.0138889
        k(   28) = (   0.0000000  -0.5000000  -0.5000000), wk =   0.0034722
        k(   29) = (   0.0833333   0.0833333   0.0833333), wk =   0.0092593
        k(   30) = (   0.0833333   0.0833333   0.1666667), wk =   0.0277778
        k(   31) = (   0.0833333   0.0833333   0.2500000), wk =   0.0277778
        k(   32) = (   0.0833333   0.0833333   0.3333333), wk =   0.0277778
        k(   33) = (   0.0833333   0.0833333   0.4166667), wk =   0.0277778
        k(   34) = (   0.0833333   0.0833333  -0.5000000), wk =   0.0138889
        k(   35) = (   0.0833333   0.1666667   0.1666667), wk =   0.0277778
        k(   36) = (   0.0833333   0.1666667   0.2500000), wk =   0.0555556
        k(   37) = (   0.0833333   0.1666667   0.3333333), wk =   0.0555556
        k(   38) = (   0.0833333   0.1666667   0.4166667), wk =   0.0555556
        k(   39) = (   0.0833333   0.1666667  -0.5000000), wk =   0.0277778
        k(   40) = (   0.0833333   0.2500000   0.2500000), wk =   0.0277778
        k(   41) = (   0.0833333   0.2500000   0.3333333), wk =   0.0555556
        k(   42) = (   0.0833333   0.2500000   0.4166667), wk =   0.0555556
        k(   43) = (   0.0833333   0.2500000  -0.5000000), wk =   0.0277778
        k(   44) = (   0.0833333   0.3333333   0.3333333), wk =   0.0277778
        k(   45) = (   0.0833333   0.3333333   0.4166667), wk =   0.0555556
        k(   46) = (   0.0833333   0.3333333  -0.5000000), wk =   0.0277778
        k(   47) = (   0.0833333   0.4166667   0.4166667), wk =   0.0277778
        k(   48) = (   0.0833333   0.4166667  -0.5000000), wk =   0.0277778
        k(   49) = (   0.0833333  -0.5000000  -0.5000000), wk =   0.0069444
        k(   50) = (   0.1666667   0.1666667   0.1666667), wk =   0.0092593
        k(   51) = (   0.1666667   0.1666667   0.2500000), wk =   0.0277778
        k(   52) = (   0.1666667   0.1666667   0.3333333), wk =   0.0277778
        k(   53) = (   0.1666667   0.1666667   0.4166667), wk =   0.0277778
        k(   54) = (   0.1666667   0.1666667  -0.5000000), wk =   0.0138889
        k(   55) = (   0.1666667   0.2500000   0.2500000), wk =   0.0277778
        k(   56) = (   0.1666667   0.2500000   0.3333333), wk =   0.0555556
        k(   57) = (   0.1666667   0.2500000   0.4166667), wk =   0.0555556
        k(   58) = (   0.1666667   0.2500000  -0.5000000), wk =   0.0277778
        k(   59) = (   0.1666667   0.3333333   0.3333333), wk =   0.0277778
        k(   60) = (   0.1666667   0.3333333   0.4166667), wk =   0.0555556
[...]
        k(   70) = (   0.2500000   0.3333333   0.4166667), wk =   0.0555556
        k(   71) = (   0.2500000   0.3333333  -0.5000000), wk =   0.0277778
        k(   72) = (   0.2500000   0.4166667   0.4166667), wk =   0.0277778
        k(   73) = (   0.2500000   0.4166667  -0.5000000), wk =   0.0277778
        k(   74) = (   0.2500000  -0.5000000  -0.5000000), wk =   0.0069444
        k(   75) = (   0.3333333   0.3333333   0.3333333), wk =   0.0092593
        k(   76) = (   0.3333333   0.3333333   0.4166667), wk =   0.0277778
        k(   77) = (   0.3333333   0.3333333  -0.5000000), wk =   0.0138889
        k(   78) = (   0.3333333   0.4166667   0.4166667), wk =   0.0277778
        k(   79) = (   0.3333333   0.4166667  -0.5000000), wk =   0.0277778
        k(   80) = (   0.3333333  -0.5000000  -0.5000000), wk =   0.0069444
        k(   81) = (   0.4166667   0.4166667   0.4166667), wk =   0.0092593
        k(   82) = (   0.4166667   0.4166667  -0.5000000), wk =   0.0138889
        k(   83) = (   0.4166667  -0.5000000  -0.5000000), wk =   0.0069444
        k(   84) = (  -0.5000000  -0.5000000  -0.5000000), wk =   0.0011574

     Check: negative core charge=   -0.000002

     Initial potential from superposition of free atoms

     starting charge   71.98510, renormalised to   72.00000
     Starting wfcs are   52 randomized atomic wfcs
     Checking if some PAW data can be deallocated...

     Self-consistent Calculation

     iteration #  1     ecut=    47.00 Ry     beta= 0.50
     Davidson diagonalization with overlap
     ethr =  1.00E-02,  avg # of iterations =  2.0

     total energy              =   -1141.23452896 Ry
     estimated scf accuracy    <       1.36015333 Ry

[...]

     iteration #  8     ecut=    47.00 Ry     beta= 0.50
     Davidson diagonalization with overlap
     c_bands:  1 eigenvalues not converged
     c_bands:  1 eigenvalues not converged
     ethr =  3.56E-07,  avg # of iterations =  9.9

[...]

     iteration # 22     ecut=    47.00 Ry     beta= 0.50
     Davidson diagonalization with overlap
     ethr =  3.99E-11,  avg # of iterations = 10.3

[...]

     total energy              =   -1141.79049671 Ry
     estimated scf accuracy    <       0.00000003 Ry

     iteration # 24     ecut=    47.00 Ry     beta= 0.50
     Davidson diagonalization with overlap
     c_bands:  1 eigenvalues not converged
     c_bands:  1 eigenvalues not converged
     c_bands:  1 eigenvalues not converged
     c_bands:  1 eigenvalues not converged
     c_bands:  1 eigenvalues not converged
     ethr =  2.47E-13,  avg # of iterations = 14.6

     End of self-consistent calculation

          k = 0.0000 0.0000 0.0000 (  3431 PWs)   bands (ev):

   -10.7759  -9.8623  -9.8623  -9.8623   1.0999   1.0999   1.0999   1.6052
     1.6052   1.6052   2.4992   2.4992   2.4992   2.4992   2.4992   2.4992
     2.9469   2.9469   2.9536   2.9536   2.9536   3.1004   3.1004   3.1004
     4.1488   4.1488   4.1488   5.1095   5.1095   5.1095   5.1095   5.1095
     5.1095   7.3637   7.3637   7.3637

     occupation numbers
     1.0000   1.0000   1.0000   1.0000   1.0000   1.0000   1.0000   1.0000
     1.0000   1.0000   1.0000   1.0000   1.0000   1.0000   1.0000   1.0000
     1.0000   1.0000   1.0000   1.0000   1.0000   1.0000   1.0000   1.0000
     1.0000   1.0000   1.0000   1.0000   1.0000   1.0000   1.0000   1.0000
     1.0000   1.0000   1.0000   1.0000

[...]

          k = 0.4167-0.5000-0.5000 (  3488 PWs)   bands (ev):

[...]

          k =-0.5000-0.5000-0.5000 (  3448 PWs)   bands (ev):

   -10.0726 -10.0726 -10.0726 -10.0726   1.6472   1.6472   1.6472   1.6472
     1.8672   1.8672   1.8672   1.8672   1.8672   1.8672   1.8672   1.8672
     3.0369   3.0369   3.0369   3.0369   3.0369   3.0369   3.0369   3.0369
     3.2809   3.2809   3.2809   3.2809   6.5494   6.5494   6.5494   6.5494
     6.5494   6.5494   6.5494   6.5494

     occupation numbers
     1.0000   1.0000   1.0000   1.0000   1.0000   1.0000   1.0000   1.0000
     1.0000   1.0000   1.0000   1.0000   1.0000   1.0000   1.0000   1.0000
     1.0000   1.0000   1.0000   1.0000   1.0000   1.0000   1.0000   1.0000
     1.0000   1.0000   1.0000   1.0000   1.0000   1.0000   1.0000   1.0000
     1.0000   1.0000   1.0000   1.0000

     highest occupied level (ev):     7.3637

* XDM dispersion
  a1 =     0.327500
  a2 (ang) =     2.767300
  a2 (bohr) =     5.229439

+ Volumes and moments
# All results in atomic units (Hartree,bohr)
# i        V             Vfree           M1             M2             M3
  1   9.388215E+01   1.053493E+02   7.771800E+00   1.192863E+02   3.749285E+03
  2   9.388215E+01   1.053493E+02   7.771800E+00   1.192863E+02   3.749285E+03
  3   9.388215E+01   1.053493E+02   7.771800E+00   1.192863E+02   3.749285E+03
  4   9.388215E+01   1.053493E+02   7.771800E+00   1.192863E+02   3.749285E+03
  5   2.273542E+01   2.378215E+01   4.116075E+00   3.127040E+01   3.188753E+02
  6   2.273542E+01   2.378215E+01   4.116075E+00   3.127040E+01   3.188753E+02
  7   2.273542E+01   2.378215E+01   4.116075E+00   3.127040E+01   3.188753E+02
  8   2.273542E+01   2.378215E+01   4.116075E+00   3.127040E+01   3.188753E+02

+ Dispersion coefficients
# All results in atomic units (Hartree,bohr).
# i   j      C6             C8             C10            Rc            Rvdw
  1   1   1.343716E+02   6.187253E+03   3.922472E+05   7.366102E+00   7.641837E+00
  2   1   1.343716E+02   6.187253E+03   3.922472E+05   7.366102E+00   7.641837E+00
  2   2   1.343716E+02   6.187253E+03   3.922472E+05   7.366102E+00   7.641837E+00
  3   1   1.343716E+02   6.187253E+03   3.922472E+05   7.366102E+00   7.641837E+00
  3   2   1.343716E+02   6.187253E+03   3.922472E+05   7.366102E+00   7.641837E+00
  3   3   1.343716E+02   6.187253E+03   3.922472E+05   7.366102E+00   7.641837E+00
  4   1   1.343716E+02   6.187253E+03   3.922472E+05   7.366102E+00   7.641837E+00
  4   2   1.343716E+02   6.187253E+03   3.922472E+05   7.366102E+00   7.641837E+00
  4   3   1.343716E+02   6.187253E+03   3.922472E+05   7.366102E+00   7.641837E+00
  4   4   1.343716E+02   6.187253E+03   3.922472E+05   7.366102E+00   7.641837E+00
  5   1   3.135315E+01   1.079132E+03   5.046378E+04   6.346353E+00   7.307870E+00
  5   2   3.135315E+01   1.079132E+03   5.046378E+04   6.346353E+00   7.307870E+00
  5   3   3.135315E+01   1.079132E+03   5.046378E+04   6.346353E+00   7.307870E+00
  5   4   3.135315E+01   1.079132E+03   5.046378E+04   6.346353E+00   7.307870E+00
  5   5   1.064820E+01   2.426876E+02   5.880919E+03   4.848152E+00   6.817209E+00
  6   1   3.135315E+01   1.079132E+03   5.046378E+04   6.346353E+00   7.307870E+00
  6   2   3.135315E+01   1.079132E+03   5.046378E+04   6.346353E+00   7.307870E+00
  6   3   3.135315E+01   1.079132E+03   5.046378E+04   6.346353E+00   7.307870E+00
  6   4   3.135315E+01   1.079132E+03   5.046378E+04   6.346353E+00   7.307870E+00
  6   5   1.064820E+01   2.426876E+02   5.880919E+03   4.848152E+00   6.817209E+00
  6   6   1.064820E+01   2.426876E+02   5.880919E+03   4.848152E+00   6.817209E+00
  7   1   3.135315E+01   1.079132E+03   5.046378E+04   6.346353E+00   7.307870E+00
  7   2   3.135315E+01   1.079132E+03   5.046378E+04   6.346353E+00   7.307870E+00
  7   3   3.135315E+01   1.079132E+03   5.046378E+04   6.346353E+00   7.307870E+00
  7   4   3.135315E+01   1.079132E+03   5.046378E+04   6.346353E+00   7.307870E+00
  7   5   1.064820E+01   2.426876E+02   5.880919E+03   4.848152E+00   6.817209E+00
  7   6   1.064820E+01   2.426876E+02   5.880919E+03   4.848152E+00   6.817209E+00
  7   7   1.064820E+01   2.426876E+02   5.880919E+03   4.848152E+00   6.817209E+00
  8   1   3.135315E+01   1.079132E+03   5.046378E+04   6.346353E+00   7.307870E+00
  8   2   3.135315E+01   1.079132E+03   5.046378E+04   6.346353E+00   7.307870E+00
  8   3   3.135315E+01   1.079132E+03   5.046378E+04   6.346353E+00   7.307870E+00
  8   4   3.135315E+01   1.079132E+03   5.046378E+04   6.346353E+00   7.307870E+00
  8   5   1.064820E+01   2.426876E+02   5.880919E+03   4.848152E+00   6.817209E+00
  8   6   1.064820E+01   2.426876E+02   5.880919E+03   4.848152E+00   6.817209E+00
  8   7   1.064820E+01   2.426876E+02   5.880919E+03   4.848152E+00   6.817209E+00
  8   8   1.064820E+01   2.426876E+02   5.880919E+03   4.848152E+00   6.817209E+00

+ van der Waals energies, forces and stresses (Ry,bohr)
  Evdw(total,Ry)   =  -1.691503668590E-01
  Evdw(C6,Ry)      =  -7.922328501061E-02
  Evdw(C8,Ry)      =  -4.673164625721E-02
  Evdw(C10,Ry)     =  -4.319543559108E-02
  Fvdw (001,Ry/bohr) =  -2.481289545212E-18  -6.980880492120E-19   3.238355206974E-18
  Fvdw (002,Ry/bohr) =   3.893996714489E-18  -5.571974397940E-19  -2.794703015837E-18
  Fvdw (003,Ry/bohr) =  -1.173410109237E-19  -1.163753750077E-18  -3.215104802849E-18
  Fvdw (004,Ry/bohr) =   2.978236846682E-18   4.292626407283E-19   3.024917764044E-18
  Fvdw (005,Ry/bohr) =   5.324782333830E-13   5.324786422551E-13   5.324716483102E-13
  Fvdw (006,Ry/bohr) =   5.324751300138E-13  -5.324782266517E-13  -5.324716510946E-13
  Fvdw (007,Ry/bohr) =  -5.324826939643E-13   5.324793680383E-13  -5.324717969678E-13
  Fvdw (008,Ry/bohr) =  -5.324828304094E-13  -5.324780183960E-13   5.324717313173E-13
  sigma_vdw (Ry/bohr**3) =  -2.586608152404E-04   6.075781994352E-21  -8.188257162996E-22
                             6.075781994352E-21  -2.586608152404E-04   3.440346341115E-21
                            -8.188257162996E-22   3.440346341115E-21  -2.586608152404E-04
  sigma_vdw (GPa) =  -3.805031952631E+00   8.937783871224E-17  -1.204534212598E-17
                      8.937783871224E-17  -3.805031952631E+00   5.060924185171E-17
                     -1.204534212598E-17   5.060924185171E-17  -3.805031952631E+00

!    total energy              =   -1141.95964708 Ry

     total all-electron energy =    -14970.935299 Ry
     estimated scf accuracy    <          7.3E-11 Ry

     The total energy is the sum of the following terms:
     one-electron contribution =    -298.93977533 Ry
     hartree contribution      =     233.12151931 Ry
     xc contribution           =    -219.15418805 Ry
     ewald contribution        =    -436.83181830 Ry
     Dispersion XDM Correction =      -0.16915037 Ry
     one-center paw contrib.   =    -419.98623434 Ry
      -> PAW hartree energy AE =     251.87077995 Ry
      -> PAW hartree energy PS =    -250.55886158 Ry
      -> PAW xc energy AE      =    -286.90777650 Ry
      -> PAW xc energy PS      =      94.77670399 Ry
      -> total E_H with PAW    =     234.43343768 Ry
      -> total E_XC with PAW   =    -411.28526056 Ry

     convergence has been achieved in  24 iterations

     Writing output data file ./tmp/ZnO.save/

     General routines

     Parallel routines

     PAW routines

   This run was terminated on:  18:50:31   8Sep2024

   JOB DONE.