     Program PWSCF v.6.7MaX starts on  7Sep2024 at 10:56:54

     R & G space division:  proc/nbgrp/npool/nimage =       4
     Reading input from WSe2_relax2.inp

     Current dimensions of program PWSCF are:
     Max number of different atomic species (ntypx) = 10
     Max number of k-points (npk) =  40000
     Max angular momentum in pseudopotentials (lmaxx) =  3
     file W.pbe-spn-kjpaw_psl.1.0.0.UPF: wavefunction(s)  6S 5P 5D renormalized
     file Se.pbe-dn-kjpaw_psl.1.0.0.UPF: wavefunction(s)  4S 4P 3D renormalized

     IMPORTANT: XC functional enforced from input :
     Exchange-correlation= PBESOL
                           (   1   4  10   8   0   0   0)
     Any further DFT definition will be discarded
     Please, verify this is what you really want

     Parameters for DFT-D3 Dispersion Correction:
       Reference C6 values for interpolation:

         atom   Coordination number   C6
         Se         0.000           427.35
         Se         0.990           427.57
         Se         1.981           421.05
         W          0.000          1628.72
         W          1.929          1086.81
         W         10.915           796.19

       Values used:

         atom   Coordination number  R0_AB[au]  C6      C8
         W          8.618            3.766    796.19 128250.55
         W          8.618            3.766    796.19 128250.55
         Se         3.912            3.332    421.05  29958.36
         Se         3.912            3.332    421.05  29958.36
         Se         3.912            3.332    421.05  29958.36
         Se         3.912            3.332    421.05  29958.36

         Molecular C6 ( Ry / a.u.^6 ) =     19173.74

     bravais-lattice index     =            4
     lattice parameter (alat)  =       6.2873  a.u.
     unit-cell volume          =     974.8449 (a.u.)^3
     number of atoms/cell      =            6
     number of atomic types    =            2
     number of electrons       =        92.00
     number of Kohn-Sham states=           46
     kinetic-energy cutoff     =      55.0000  Ry
     charge density cutoff     =     475.0000  Ry
     scf convergence threshold =      1.0E-09
     mixing beta               =       0.5000
     number of iterations used =            8  plain     mixing
     energy convergence thresh.=      1.0E-04
     force convergence thresh. =      1.0E-04
     Exchange-correlation= PBESOL
                           (   1   4  10   8   0   0   0)
     nstep                     =          500

     celldm(1)=   6.287251  celldm(2)=   0.000000  celldm(3)=   4.529210
     celldm(4)=   0.000000  celldm(5)=   0.000000  celldm(6)=   0.000000

     crystal axes: (cart. coord. in units of alat)
               a(1) = (   1.000000   0.000000   0.000000 )
               a(2) = (  -0.500000   0.866025   0.000000 )
               a(3) = (   0.000000   0.000000   4.529210 )

     reciprocal axes: (cart. coord. in units 2 pi/alat)
               b(1) = (  1.000000  0.577350 -0.000000 )
               b(2) = (  0.000000  1.154701  0.000000 )
               b(3) = (  0.000000 -0.000000  0.220789 )

     PseudoPot. # 1 for W  read from file:
     /home/alessandro_rotondi/q-e/pseudo/W.pbe-spn-kjpaw_psl.1.0.0.UPF
     MD5 check sum: 03c3df5b60893f488392c7401945500a
     Pseudo is Projector augmented-wave + core cor, Zval = 14.0
     Generated using &quot;atomic&quot; code by A. Dal Corso  v.6.2.2
     Shape of augmentation charge: PSQ
     Using radial grid of 1273 points,  6 beta functions with:
                l(1) =   0
                l(2) =   0
                l(3) =   1
                l(4) =   1
                l(5) =   2
                l(6) =   2
     Q(r) pseudized with 0 coefficients

     PseudoPot. # 2 for Se read from file:
     /home/alessandro_rotondi/q-e/pseudo/Se.pbe-dn-kjpaw_psl.1.0.0.UPF
     MD5 check sum: ac240dd2bae32a30e0bf3a38df9c8785
     Pseudo is Projector augmented-wave + core cor, Zval = 16.0
     Generated using &quot;atomic&quot; code by A. Dal Corso  v.6.3
     Shape of augmentation charge: PSQ
     Using radial grid of 1211 points,  6 beta functions with:
                l(1) =   0
                l(2) =   0
                l(3) =   1
                l(4) =   1
                l(5) =   2
                l(6) =   2
     Q(r) pseudized with 0 coefficients

     atomic species   valence    mass     pseudopotential
        W             14.00   183.84000     W ( 1.00)
        Se            16.00    78.96000     Se( 1.00)

     24 Sym. Ops., with inversion, found (12 have fractional translation)

                                    s                        frac. trans.

      isym =  1     identity

 cryst.   s( 1) = (     1          0          0      )
                  (     0          1          0      )
                  (     0          0          1      )

 cart.    s( 1) = (  1.0000000  0.0000000  0.0000000 )
                  (  0.0000000  1.0000000  0.0000000 )
                  (  0.0000000  0.0000000  1.0000000 )

      isym =  2     180 deg rotation - cart. axis [0,0,1]

 cryst.   s( 2) = (    -1          0          0      )    f =(  0.0000000 )
                  (     0         -1          0      )       (  0.0000000 )
                  (     0          0          1      )       (  0.4999990 )

 cart.    s( 2) = ( -1.0000000  0.0000000  0.0000000 )    f =(  0.0000000 )
                  (  0.0000000 -1.0000000  0.0000000 )       (  0.0000000 )
                  (  0.0000000  0.0000000  1.0000000 )       (  2.2646007 )

[...]

      isym =  4     180 deg rotation - cart. axis [1,0,0]

[...]

      isym =  5      60 deg rotation - cryst. axis [0,0,1]

[...]

 cryst.   s( 8) = (    -1         -1          0      )
                  (     1          0          0      )
                  (     0          0          1      )

 cart.    s( 8) = ( -0.5000000  0.8660254  0.0000000 )
                  ( -0.8660254 -0.5000000  0.0000000 )
                  (  0.0000000  0.0000000  1.0000000 )

[...]

 cryst.   s( 9) = (     0         -1          0      )    f =(  0.0000000 )
                  (    -1          0          0      )       (  0.0000000 )
                  (     0          0         -1      )       ( -0.4999980 )

 cart.    s( 9) = (  0.5000000 -0.8660254  0.0000000 )    f =(  0.0000000 )
                  ( -0.8660254 -0.5000000  0.0000000 )       (  0.0000000 )
                  (  0.0000000  0.0000000 -1.0000000 )       ( -2.2645961 )

[...]

 cryst.   s(10) = (     1          1          0      )    f =(  0.0000000 )
                  (     0         -1          0      )       ( -0.0000010 )
                  (     0          0         -1      )       ( -0.4999980 )

 cart.    s(10) = (  0.5000000  0.8660254  0.0000000 )    f =(  0.0000005 )
                  (  0.8660254 -0.5000000  0.0000000 )       ( -0.0000009 )
                  (  0.0000000  0.0000000 -1.0000000 )       ( -2.2645961 )

[...]

 cryst.   s(11) = (    -1         -1          0      )
                  (     0          1          0      )
                  (     0          0         -1      )

 cart.    s(11) = ( -0.5000000 -0.8660254  0.0000000 )
                  ( -0.8660254  0.5000000  0.0000000 )
                  (  0.0000000  0.0000000 -1.0000000 )

      isym = 12     180 deg rotation - cryst. axis [1,1,0]

[...]

      isym = 13     inversion

[...]

      isym = 14     inv. 180 deg rotation - cart. axis [0,0,1]

[...]

      isym = 16     inv. 180 deg rotation - cart. axis [1,0,0]

[...]

      isym = 17     inv.  60 deg rotation - cryst. axis [0,0,1]

[...]

 cryst.   s(22) = (    -1         -1          0      )    f =(  0.0000000 )
                  (     0          1          0      )       ( -0.0000010 )
                  (     0          0          1      )       (  0.4999990 )

 cart.    s(22) = ( -0.5000000 -0.8660254  0.0000000 )    f =(  0.0000005 )
                  ( -0.8660254  0.5000000  0.0000000 )       ( -0.0000009 )
                  (  0.0000000  0.0000000  1.0000000 )       (  2.2646007 )

[...]

      isym = 24     inv. 180 deg rotation - cryst. axis [1,1,0]

 cryst.   s(24) = (     0         -1          0      )
                  (    -1          0          0      )
                  (     0          0          1      )

 cart.    s(24) = (  0.5000000 -0.8660254  0.0000000 )
                  ( -0.8660254 -0.5000000  0.0000000 )
                  (  0.0000000  0.0000000  1.0000000 )

     point group D_6h(6/mmm)
     there are 12 classes
     the character table:

       E     2C6   2C3   C2    3C2'  3C2'' i     2S3   2S6   s_h   3s_d  3s_v
A_1g   1.00  1.00  1.00  1.00  1.00  1.00  1.00  1.00  1.00  1.00  1.00  1.00
A_2g   1.00  1.00  1.00  1.00 -1.00 -1.00  1.00  1.00  1.00  1.00 -1.00 -1.00
B_1g   1.00 -1.00  1.00 -1.00  1.00 -1.00  1.00 -1.00  1.00 -1.00  1.00 -1.00
B_2g   1.00 -1.00  1.00 -1.00 -1.00  1.00  1.00 -1.00  1.00 -1.00 -1.00  1.00
E_1g   2.00  1.00 -1.00 -2.00  0.00  0.00  2.00  1.00 -1.00 -2.00  0.00  0.00
E_2g   2.00 -1.00 -1.00  2.00  0.00  0.00  2.00 -1.00 -1.00  2.00  0.00  0.00
A_1u   1.00  1.00  1.00  1.00  1.00  1.00 -1.00 -1.00 -1.00 -1.00 -1.00 -1.00
A_2u   1.00  1.00  1.00  1.00 -1.00 -1.00 -1.00 -1.00 -1.00 -1.00  1.00  1.00
B_1u   1.00 -1.00  1.00 -1.00  1.00 -1.00 -1.00  1.00 -1.00  1.00 -1.00  1.00
B_2u   1.00 -1.00  1.00 -1.00 -1.00  1.00 -1.00  1.00 -1.00  1.00  1.00 -1.00
E_1u   2.00  1.00 -1.00 -2.00  0.00  0.00 -2.00 -1.00  1.00  2.00  0.00  0.00
E_2u   2.00 -1.00 -1.00  2.00  0.00  0.00 -2.00  1.00  1.00 -2.00  0.00  0.00

     the symmetry operations in each class and the name of the first element:

     E        1
          identity
     2C6      5    6
           60 deg rotation - cryst. axis [0,0,1]
     2C3      7    8
          120 deg rotation - cryst. axis [0,0,1]
     C2       2
          180 deg rotation - cart. axis [0,0,1]
     3C2'     4   12   11
          180 deg rotation - cart. axis [1,0,0]
     3C2''    3    9   10
          180 deg rotation - cart. axis [0,1,0]
     i       13
          inversion
     2S3     17   18
          inv.  60 deg rotation - cryst. axis [0,0,1]
     2S6     19   20
          inv. 120 deg rotation - cryst. axis [0,0,1]
     s_h     14
          inv. 180 deg rotation - cart. axis [0,0,1]
     3s_d    16   24   23
          inv. 180 deg rotation - cart. axis [1,0,0]
     3s_v    15   21   22
          inv. 180 deg rotation - cart. axis [0,1,0]

   Cartesian axes

     site n.     atom                  positions (alat units)
         1           W   tau(   1) = (  -0.0000005   0.5773506   1.1322981  )
         2           W   tau(   2) = (   0.5000005   0.2886748   3.3968987  )
         3           Se  tau(   3) = (   0.5000005   0.2886748   1.6354393  )
         4           Se  tau(   4) = (  -0.0000005   0.5773506   3.9000354  )
         5           Se  tau(   5) = (   0.5000005   0.2886748   0.6291614  )
         6           Se  tau(   6) = (  -0.0000005   0.5773506   2.8937575  )

   Crystallographic axes

     site n.     atom                  positions (cryst. coord.)
         1           W   tau(   1) = (  0.3333330  0.6666670  0.2499990  )
[...]
     ./tmp/WSe2.save/

     The initial density is read from file :
     ./tmp/WSe2.save/charge-density

     negative rho (up, down):  5.311E-04 0.000E+00
     Starting wfcs from file
     Checking if some PAW data can be deallocated...

     Self-consistent Calculation

     iteration #  1     ecut=    55.00 Ry     beta= 0.50
     Davidson diagonalization with overlap
     ethr =  1.00E-05,  avg # of iterations =  2.0

     Threshold (ethr) on eigenvalues was too large:
     Diagonalizing with lowered threshold

     Davidson diagonalization with overlap
     ethr =  9.71E-07,  avg # of iterations =  3.0

     negative rho (up, down):  5.681E-04 0.000E+00

     total energy              =   -3096.20882816 Ry
     estimated scf accuracy    <       0.00138590 Ry

[...]

     End of self-consistent calculation

          k = 0.0000 0.0000 0.0000 (  6733 PWs)   bands (ev):

   -64.7063 -64.7061 -38.1422 -38.1422 -38.1384 -38.1384 -38.1356 -38.1356
   -38.1321 -38.1321 -38.1097 -38.1097 -38.1060 -38.1060 -38.1031 -38.1031
   -38.0997 -38.0997 -38.0958 -38.0923 -38.0889 -38.0856 -28.9163 -28.9161
   -28.8103 -28.8103 -28.8101 -28.8101  -5.3395  -5.3102  -4.1073  -4.0541
     3.1139   3.3700   6.8224   7.0050   7.0051   7.0065   7.0065   7.6968
     8.1049   8.1050   8.1098   8.1099   8.8337   9.3259

     occupation numbers
     1.0000   1.0000   1.0000   1.0000   1.0000   1.0000   1.0000   1.0000
     1.0000   1.0000   1.0000   1.0000   1.0000   1.0000   1.0000   1.0000
     1.0000   1.0000   1.0000   1.0000   1.0000   1.0000   1.0000   1.0000
     1.0000   1.0000   1.0000   1.0000   1.0000   1.0000   1.0000   1.0000
     1.0000   1.0000   1.0000   1.0000   1.0000   1.0000   1.0000   1.0000
     1.0000   1.0000   1.0000   1.0000   1.0000   1.0000

[...]

     highest occupied level (ev):     9.3259

!    total energy              =   -3096.20937865 Ry

     total all-electron energy =    -83980.933943 Ry
     estimated scf accuracy    <          2.1E-10 Ry

     The total energy is the sum of the following terms:
     one-electron contribution =   -1169.77334104 Ry
     hartree contribution      =     606.45209325 Ry
     xc contribution           =    -192.03981249 Ry
     ewald contribution        =    -595.85402450 Ry
     DFT-D3 Dispersion         =      -0.08582440 Ry
     one-center paw contrib.   =   -1744.90846947 Ry
      -> PAW hartree energy AE =     182.72483078 Ry
      -> PAW hartree energy PS =    -181.74145982 Ry
      -> PAW xc energy AE      =   -1270.49015487 Ry
      -> PAW xc energy PS      =      76.52731220 Ry
      -> total E_H with PAW    =     607.43546421 Ry
      -> total E_XC with PAW   =   -1386.00265516 Ry

     convergence has been achieved in  11 iterations

[...]

     Forces acting on atoms (cartesian axes, Ry/au):

     atom    1 type  1   force =     0.00000000    0.00000000    0.00000000
     atom    2 type  1   force =     0.00000000   -0.00000000    0.00000000
     atom    3 type  2   force =    -0.00000000   -0.00000000   -0.01484764
     atom    4 type  2   force =     0.00000000    0.00000000   -0.01484764
     atom    5 type  2   force =     0.00000000   -0.00000000    0.01484764
     atom    6 type  2   force =     0.00000000    0.00000000    0.01484764
     The non-local contrib.  to forces
     atom    1 type  1   force =    -0.00000000    0.00000000    0.00000000
     atom    2 type  1   force =     0.00000000    0.00000000    0.00000000
     atom    3 type  2   force =     0.00000000   -0.00000000   -0.71822229
     atom    4 type  2   force =     0.00000000   -0.00000000   -0.71822229
     atom    5 type  2   force =     0.00000000    0.00000000    0.71822229
     atom    6 type  2   force =     0.00000000    0.00000000    0.71822229
     The ionic contribution  to forces
     atom    1 type  1   force =     0.00003819   -0.00002205   -0.00064590
     atom    2 type  1   force =    -0.00003819    0.00002205    0.00064590
     atom    3 type  2   force =    -0.00001921    0.00001109   50.84609504
     atom    4 type  2   force =     0.00001921   -0.00001109   50.84807955
     atom    5 type  2   force =    -0.00001921    0.00001109  -50.84807955
     atom    6 type  2   force =     0.00001921   -0.00001109  -50.84609504
     The local contribution  to forces
     atom    1 type  1   force =     0.00008954   -0.00002082    0.00129509
     atom    2 type  1   force =    -0.00021513    0.00015509    0.00298592
     atom    3 type  2   force =    -0.00154367    0.00094999  -50.14309865
     atom    4 type  2   force =     0.00053902   -0.00025246  -50.12376072
     atom    5 type  2   force =    -0.00157205    0.00096637   50.14791988
     atom    6 type  2   force =     0.00056739   -0.00026884   50.16731483
     The core correction contribution to forces
     atom    1 type  1   force =     0.00000201    0.00000211    0.00000865
     atom    2 type  1   force =    -0.00000037    0.00000348    0.00001968
     atom    3 type  2   force =    -0.00000256    0.00000175    0.00156062
     atom    4 type  2   force =     0.00000099   -0.00000031    0.00159319
     atom    5 type  2   force =    -0.00000262    0.00000178   -0.00155281
     atom    6 type  2   force =     0.00000104   -0.00000034   -0.00152054
     The Hubbard contrib.    to forces
     atom    1 type  1   force =     0.00000000    0.00000000    0.00000000
     atom    2 type  1   force =     0.00000000    0.00000000    0.00000000
     atom    3 type  2   force =     0.00000000    0.00000000    0.00000000
     atom    4 type  2   force =     0.00000000    0.00000000    0.00000000
     atom    5 type  2   force =     0.00000000    0.00000000    0.00000000
     atom    6 type  2   force =     0.00000000    0.00000000    0.00000000
     The SCF correction term to forces
     atom    1 type  1   force =    -0.00000000    0.00000000   -0.00000000
     atom    2 type  1   force =     0.00000000   -0.00000000   -0.00000000
     atom    3 type  2   force =    -0.00000000    0.00000000    0.00004882
     atom    4 type  2   force =     0.00000000   -0.00000000    0.00004882
     atom    5 type  2   force =    -0.00000000    0.00000000   -0.00004882
     atom    6 type  2   force =    -0.00000000    0.00000000   -0.00004882

     DFT-D3 dispersion contribution to forces:
     atom    1 type  1   force =     0.00000001   -0.00000001    0.00000004
     atom    2 type  1   force =    -0.00000001    0.00000001   -0.00000004
     atom    3 type  2   force =    -0.00000001    0.00000000    0.00020531
     atom    4 type  2   force =     0.00000001   -0.00000000    0.00020522
     atom    5 type  2   force =    -0.00000001    0.00000000   -0.00020522
     atom    6 type  2   force =     0.00000001   -0.00000000   -0.00020531

     Total force =     0.029695     Total SCF correction =     0.000098

     DFT-D3 dispersion Force =     0.000411

     BFGS Geometry Optimization
     Energy error            =      0.0E+00
     Gradient error          =      1.5E-02

     number of scf cycles    =   1
     number of bfgs steps    =   0

     energy   new            =   -3096.2093786483 Ry

     new trust radius        =       0.0148476353 bohr
     new conv_thr            =       0.0000000010 Ry

ATOMIC_POSITIONS (crystal)
W             0.3333330000        0.6666670000        0.2499990000
W             0.6666670000        0.3333330000        0.7499980000
Se            0.6666670000        0.3333330000        0.3605656601
Se            0.3333330000        0.6666670000        0.8605636601
Se            0.6666670000        0.3333330000        0.1394333399
Se            0.3333330000        0.6666670000        0.6394313399

     Writing output data file ./tmp/WSe2.save/
     NEW-OLD atomic charge density approx. for the potential

[...]

     DFT-D3 dispersion Force =     0.000311
     Energy error            =      7.3E-04
     Gradient error          =      9.8E-03

[...]

     energy   old            =   -3096.2093786483 Ry
     energy   new            =   -3096.2101120050 Ry

     CASE: energy  _new < energy  _old

[...]

     DFT-D3 dispersion Force =     0.000118
     SCF correction compared to forces is large: reduce conv_thr to get better values
     Energy error            =      9.6E-05
     Gradient error          =      1.2E-04

     number of scf cycles    =   4
     number of bfgs steps    =   3

     energy   old            =   -3096.2105696912 Ry
     energy   new            =   -3096.2106657058 Ry

     CASE: energy  _new < energy  _old

     new trust radius        =       0.0003465934 bohr
     new conv_thr            =       0.0000000003 Ry

ATOMIC_POSITIONS (crystal)
W             0.3333330000        0.6666670000        0.2499990000
W             0.6666670000        0.3333330000        0.7499980000
Se            0.6666670000        0.3333330000        0.3595864071
Se            0.3333330000        0.6666670000        0.8595844071
Se            0.6666670000        0.3333330000        0.1404125929
Se            0.3333330000        0.6666670000        0.6404105929

     Writing output data file ./tmp/WSe2.save/
     NEW-OLD atomic charge density approx. for the potential

[...]

     Self-consistent Calculation

[...]

     Threshold (ethr) on eigenvalues was too large:
     Diagonalizing with lowered threshold

     Davidson diagonalization with overlap
     ethr =  4.23E-10,  avg # of iterations =  4.2

[...]

     total energy              =   -3096.21066576 Ry
     estimated scf accuracy    <          3.4E-10 Ry

     iteration #  6     ecut=    55.00 Ry     beta= 0.50
     Davidson diagonalization with overlap
     ethr =  3.67E-13,  avg # of iterations =  4.3

[...]

     End of self-consistent calculation

[...]

          k = 0.3125 0.5413-0.1104 (  6682 PWs)   bands (ev):

   -64.6814 -64.6811 -38.1500 -38.1491 -38.1462 -38.1453 -38.1433 -38.1426
   -38.1398 -38.1390 -38.1186 -38.1180 -38.1149 -38.1142 -38.1117 -38.1113
   -38.1083 -38.1078 -38.1002 -38.0968 -38.0929 -38.0897 -28.9720 -28.9718
   -28.9358 -28.9356 -28.8598 -28.8596  -3.2386  -3.2384  -3.0644  -3.0643
     4.0061   4.0069   4.0271   4.0277   5.0882   5.0883   5.5983   5.5986
     6.1026   6.1029   7.1269   7.1269   9.2696   9.2697

     occupation numbers
     1.0000   1.0000   1.0000   1.0000   1.0000   1.0000   1.0000   1.0000
     1.0000   1.0000   1.0000   1.0000   1.0000   1.0000   1.0000   1.0000
     1.0000   1.0000   1.0000   1.0000   1.0000   1.0000   1.0000   1.0000
     1.0000   1.0000   1.0000   1.0000   1.0000   1.0000   1.0000   1.0000
     1.0000   1.0000   1.0000   1.0000   1.0000   1.0000   1.0000   1.0000
     1.0000   1.0000   1.0000   1.0000   1.0000   1.0000

     highest occupied level (ev):     9.3805

!    total energy              =   -3096.21066576 Ry

     total all-electron energy =    -83980.935230 Ry
     estimated scf accuracy    <          1.3E-11 Ry

     The total energy is the sum of the following terms:
     one-electron contribution =   -1187.20112386 Ry
     hartree contribution      =     615.14656833 Ry
     xc contribution           =    -192.11387712 Ry
     ewald contribution        =    -587.04339949 Ry
     DFT-D3 Dispersion         =      -0.08580330 Ry
     one-center paw contrib.   =   -1744.91303032 Ry
      -> PAW hartree energy AE =     183.44009839 Ry
      -> PAW hartree energy PS =    -182.45624041 Ry
      -> PAW xc energy AE      =   -1270.55721945 Ry
      -> PAW xc energy PS      =      76.59136687 Ry
      -> total E_H with PAW    =     616.13042631 Ry
      -> total E_XC with PAW   =   -1386.07972970 Ry

     convergence has been achieved in   6 iterations

     negative rho (up, down):  1.142E-03 0.000E+00

     Forces acting on atoms (cartesian axes, Ry/au):

     atom    1 type  1   force =     0.00000000    0.00000000   -0.00000000
     atom    2 type  1   force =    -0.00000000   -0.00000000    0.00000000
     atom    3 type  2   force =     0.00000000   -0.00000000   -0.00002246
     atom    4 type  2   force =     0.00000000   -0.00000000   -0.00002246
     atom    5 type  2   force =     0.00000000   -0.00000000    0.00002246
     atom    6 type  2   force =     0.00000000    0.00000000    0.00002246
     The non-local contrib.  to forces
     atom    1 type  1   force =     0.00000000    0.00000000    0.00000000
     atom    2 type  1   force =    -0.00000000    0.00000000   -0.00000000
     atom    3 type  2   force =     0.00000000   -0.00000000   -0.72536906
     atom    4 type  2   force =    -0.00000000   -0.00000000   -0.72536906
     atom    5 type  2   force =     0.00000000    0.00000000    0.72536906
     atom    6 type  2   force =    -0.00000000   -0.00000000    0.72536906
     The ionic contribution  to forces
     atom    1 type  1   force =     0.00003985   -0.00002301   -0.00065342
     atom    2 type  1   force =    -0.00003985    0.00002301    0.00065342
     atom    3 type  2   force =    -0.00002003    0.00001156   52.23969449
     atom    4 type  2   force =     0.00002003   -0.00001156   52.24167184
     atom    5 type  2   force =    -0.00002003    0.00001156  -52.24167184
     atom    6 type  2   force =     0.00002003   -0.00001156  -52.23969449
     The local contribution  to forces
     atom    1 type  1   force =     0.00008919   -0.00002061    0.00130810
     atom    2 type  1   force =    -0.00021409    0.00015449    0.00301435
     atom    3 type  2   force =    -0.00154265    0.00094939  -51.51440359
     atom    4 type  2   force =     0.00053823   -0.00025200  -51.49505688
     atom    5 type  2   force =    -0.00157234    0.00096654   51.51923074
     atom    6 type  2   force =     0.00056793   -0.00026915   51.53864180
     The core correction contribution to forces
     atom    1 type  1   force =     0.00000200    0.00000211    0.00000854
     atom    2 type  1   force =    -0.00000035    0.00000347    0.00001948
     atom    3 type  2   force =    -0.00000256    0.00000174    0.00144184
     atom    4 type  2   force =     0.00000099   -0.00000031    0.00147440
     atom    5 type  2   force =    -0.00000262    0.00000178   -0.00143404
     atom    6 type  2   force =     0.00000104   -0.00000034   -0.00140180
     The Hubbard contrib.    to forces
     atom    1 type  1   force =     0.00000000    0.00000000    0.00000000
     atom    2 type  1   force =     0.00000000    0.00000000    0.00000000
     atom    3 type  2   force =     0.00000000    0.00000000    0.00000000
     atom    4 type  2   force =     0.00000000    0.00000000    0.00000000
     atom    5 type  2   force =     0.00000000    0.00000000    0.00000000
     atom    6 type  2   force =     0.00000000    0.00000000    0.00000000
     The SCF correction term to forces
     atom    1 type  1   force =     0.00000000   -0.00000000    0.00000000
     atom    2 type  1   force =    -0.00000000    0.00000000    0.00000000
     atom    3 type  2   force =     0.00000000   -0.00000000   -0.00000159
     atom    4 type  2   force =    -0.00000000    0.00000000   -0.00000159
     atom    5 type  2   force =     0.00000000   -0.00000000    0.00000159
     atom    6 type  2   force =    -0.00000000    0.00000000    0.00000159

     DFT-D3 dispersion contribution to forces:
     atom    1 type  1   force =     0.00000001   -0.00000001    0.00000004
     atom    2 type  1   force =    -0.00000001    0.00000001   -0.00000004
     atom    3 type  2   force =    -0.00000001    0.00000000    0.00006031
     atom    4 type  2   force =     0.00000001   -0.00000000    0.00006021
     atom    5 type  2   force =    -0.00000001    0.00000000   -0.00006021
     atom    6 type  2   force =     0.00000001   -0.00000000   -0.00006031

     Total force =     0.000045     Total SCF correction =     0.000003

     DFT-D3 dispersion Force =     0.000121
     Energy error            =      5.6E-08
     Gradient error          =      2.2E-05

     bfgs converged in   5 scf cycles and   4 bfgs steps
     (criteria: energy <  1.0E-04 Ry, force <  1.0E-04 Ry/Bohr)

     End of BFGS Geometry Optimization

     Final energy   =   -3096.2106657616 Ry

     File ./tmp/WSe2.bfgs deleted, as requested
Begin final coordinates

ATOMIC_POSITIONS (crystal)
W             0.3333330000        0.6666670000        0.2499990000
W             0.6666670000        0.3333330000        0.7499980000
Se            0.6666670000        0.3333330000        0.3595864071
Se            0.3333330000        0.6666670000        0.8595844071
Se            0.6666670000        0.3333330000        0.1404125929
Se            0.3333330000        0.6666670000        0.6404105929
End final coordinates

     Writing output data file ./tmp/WSe2.save/

     General routines

     Parallel routines

     PAW routines

   This run was terminated on:  14: 8:51   7Sep2024

   JOB DONE.