     Program PWSCF v.6.7MaX starts on  6Sep2024 at 19:19:35

     R & G space division:  proc/nbgrp/npool/nimage =       4
     Reading input from WSe2_relax.inp

     Current dimensions of program PWSCF are:
     Max number of different atomic species (ntypx) = 10
     Max number of k-points (npk) =  40000
     Max angular momentum in pseudopotentials (lmaxx) =  3
     file W.pbe-spn-kjpaw_psl.1.0.0.UPF: wavefunction(s)  6S 5P 5D renormalized
     file Se.pbe-dn-kjpaw_psl.1.0.0.UPF: wavefunction(s)  4S 4P 3D renormalized

     bravais-lattice index     =            4
     lattice parameter (alat)  =       6.2873  a.u.
     unit-cell volume          =     974.8449 (a.u.)^3
     number of atoms/cell      =            6
     number of atomic types    =            2
     number of electrons       =        92.00
     number of Kohn-Sham states=           46
     kinetic-energy cutoff     =      50.0000  Ry
     charge density cutoff     =     475.0000  Ry
     scf convergence threshold =      1.0E-08
     mixing beta               =       0.6000
     number of iterations used =            8  plain     mixing
     energy convergence thresh.=      1.0E-04
     force convergence thresh. =      1.0E-03
     Exchange-correlation= SLA  PW   PBX  PBC
                           (   1   4   3   4   0   0   0)
     nstep                     =          500

     celldm(1)=   6.287251  celldm(2)=   0.000000  celldm(3)=   4.529210
     celldm(4)=   0.000000  celldm(5)=   0.000000  celldm(6)=   0.000000

     crystal axes: (cart. coord. in units of alat)
               a(1) = (   1.000000   0.000000   0.000000 )
               a(2) = (  -0.500000   0.866025   0.000000 )
               a(3) = (   0.000000   0.000000   4.529210 )

     reciprocal axes: (cart. coord. in units 2 pi/alat)
               b(1) = (  1.000000  0.577350 -0.000000 )
               b(2) = (  0.000000  1.154701  0.000000 )
               b(3) = (  0.000000 -0.000000  0.220789 )

     PseudoPot. # 1 for W  read from file:
     /home/alessandro_rotondi/q-e/pseudo/W.pbe-spn-kjpaw_psl.1.0.0.UPF
     MD5 check sum: 03c3df5b60893f488392c7401945500a
     Pseudo is Projector augmented-wave + core cor, Zval = 14.0
     Generated using &quot;atomic&quot; code by A. Dal Corso  v.6.2.2
     Shape of augmentation charge: PSQ
     Using radial grid of 1273 points,  6 beta functions with:
                l(1) =   0
                l(2) =   0
                l(3) =   1
                l(4) =   1
                l(5) =   2
                l(6) =   2
     Q(r) pseudized with 0 coefficients

     PseudoPot. # 2 for Se read from file:
     /home/alessandro_rotondi/q-e/pseudo/Se.pbe-dn-kjpaw_psl.1.0.0.UPF
     MD5 check sum: ac240dd2bae32a30e0bf3a38df9c8785
     Pseudo is Projector augmented-wave + core cor, Zval = 16.0
     Generated using &quot;atomic&quot; code by A. Dal Corso  v.6.3
     Shape of augmentation charge: PSQ
     Using radial grid of 1211 points,  6 beta functions with:
                l(1) =   0
                l(2) =   0
                l(3) =   1
                l(4) =   1
                l(5) =   2
                l(6) =   2
     Q(r) pseudized with 0 coefficients

     atomic species   valence    mass     pseudopotential
        W             14.00   183.84000     W ( 1.00)
        Se            16.00    78.96000     Se( 1.00)

     24 Sym. Ops., with inversion, found (12 have fractional translation)

                                    s                        frac. trans.

      isym =  1     identity

 cryst.   s( 1) = (     1          0          0      )
                  (     0          1          0      )
                  (     0          0          1      )

 cart.    s( 1) = (  1.0000000  0.0000000  0.0000000 )
                  (  0.0000000  1.0000000  0.0000000 )
                  (  0.0000000  0.0000000  1.0000000 )

      isym =  2     180 deg rotation - cart. axis [0,0,1]

 cryst.   s( 2) = (    -1          0          0      )    f =(  0.0000000 )
                  (     0         -1          0      )       (  0.0000000 )
                  (     0          0          1      )       (  0.4999990 )

 cart.    s( 2) = ( -1.0000000  0.0000000  0.0000000 )    f =(  0.0000000 )
                  (  0.0000000 -1.0000000  0.0000000 )       (  0.0000000 )
                  (  0.0000000  0.0000000  1.0000000 )       (  2.2646007 )

[...]

      isym =  4     180 deg rotation - cart. axis [1,0,0]

[...]

      isym =  5      60 deg rotation - cryst. axis [0,0,1]

[...]

 cryst.   s( 8) = (    -1         -1          0      )
                  (     1          0          0      )
                  (     0          0          1      )

 cart.    s( 8) = ( -0.5000000  0.8660254  0.0000000 )
                  ( -0.8660254 -0.5000000  0.0000000 )
                  (  0.0000000  0.0000000  1.0000000 )

[...]

 cryst.   s( 9) = (     0         -1          0      )    f =(  0.0000000 )
                  (    -1          0          0      )       (  0.0000000 )
                  (     0          0         -1      )       ( -0.4999980 )

 cart.    s( 9) = (  0.5000000 -0.8660254  0.0000000 )    f =(  0.0000000 )
                  ( -0.8660254 -0.5000000  0.0000000 )       (  0.0000000 )
                  (  0.0000000  0.0000000 -1.0000000 )       ( -2.2645961 )

[...]

 cryst.   s(10) = (     1          1          0      )    f =(  0.0000000 )
                  (     0         -1          0      )       ( -0.0000010 )
                  (     0          0         -1      )       ( -0.4999980 )

 cart.    s(10) = (  0.5000000  0.8660254  0.0000000 )    f =(  0.0000005 )
                  (  0.8660254 -0.5000000  0.0000000 )       ( -0.0000009 )
                  (  0.0000000  0.0000000 -1.0000000 )       ( -2.2645961 )

[...]

 cryst.   s(11) = (    -1         -1          0      )
                  (     0          1          0      )
                  (     0          0         -1      )

 cart.    s(11) = ( -0.5000000 -0.8660254  0.0000000 )
                  ( -0.8660254  0.5000000  0.0000000 )
                  (  0.0000000  0.0000000 -1.0000000 )

      isym = 12     180 deg rotation - cryst. axis [1,1,0]

[...]

      isym = 13     inversion

[...]

      isym = 14     inv. 180 deg rotation - cart. axis [0,0,1]

[...]

      isym = 16     inv. 180 deg rotation - cart. axis [1,0,0]

[...]

      isym = 17     inv.  60 deg rotation - cryst. axis [0,0,1]

[...]

 cryst.   s(22) = (    -1         -1          0      )    f =(  0.0000000 )
                  (     0          1          0      )       ( -0.0000010 )
                  (     0          0          1      )       (  0.4999990 )

 cart.    s(22) = ( -0.5000000 -0.8660254  0.0000000 )    f =(  0.0000005 )
                  ( -0.8660254  0.5000000  0.0000000 )       ( -0.0000009 )
                  (  0.0000000  0.0000000  1.0000000 )       (  2.2646007 )

[...]

      isym = 24     inv. 180 deg rotation - cryst. axis [1,1,0]

 cryst.   s(24) = (     0         -1          0      )
                  (    -1          0          0      )
                  (     0          0          1      )

 cart.    s(24) = (  0.5000000 -0.8660254  0.0000000 )
                  ( -0.8660254 -0.5000000  0.0000000 )
                  (  0.0000000  0.0000000  1.0000000 )

     point group D_6h(6/mmm)
     there are 12 classes
     the character table:

       E     2C6   2C3   C2    3C2'  3C2'' i     2S3   2S6   s_h   3s_d  3s_v
A_1g   1.00  1.00  1.00  1.00  1.00  1.00  1.00  1.00  1.00  1.00  1.00  1.00
A_2g   1.00  1.00  1.00  1.00 -1.00 -1.00  1.00  1.00  1.00  1.00 -1.00 -1.00
B_1g   1.00 -1.00  1.00 -1.00  1.00 -1.00  1.00 -1.00  1.00 -1.00  1.00 -1.00
B_2g   1.00 -1.00  1.00 -1.00 -1.00  1.00  1.00 -1.00  1.00 -1.00 -1.00  1.00
E_1g   2.00  1.00 -1.00 -2.00  0.00  0.00  2.00  1.00 -1.00 -2.00  0.00  0.00
E_2g   2.00 -1.00 -1.00  2.00  0.00  0.00  2.00 -1.00 -1.00  2.00  0.00  0.00
A_1u   1.00  1.00  1.00  1.00  1.00  1.00 -1.00 -1.00 -1.00 -1.00 -1.00 -1.00
A_2u   1.00  1.00  1.00  1.00 -1.00 -1.00 -1.00 -1.00 -1.00 -1.00  1.00  1.00
B_1u   1.00 -1.00  1.00 -1.00  1.00 -1.00 -1.00  1.00 -1.00  1.00 -1.00  1.00
B_2u   1.00 -1.00  1.00 -1.00 -1.00  1.00 -1.00  1.00 -1.00  1.00  1.00 -1.00
E_1u   2.00  1.00 -1.00 -2.00  0.00  0.00 -2.00 -1.00  1.00  2.00  0.00  0.00
E_2u   2.00 -1.00 -1.00  2.00  0.00  0.00 -2.00  1.00  1.00 -2.00  0.00  0.00

     the symmetry operations in each class and the name of the first element:

     E        1
          identity
     2C6      5    6
           60 deg rotation - cryst. axis [0,0,1]
     2C3      7    8
          120 deg rotation - cryst. axis [0,0,1]
     C2       2
          180 deg rotation - cart. axis [0,0,1]
     3C2'     4   12   11
          180 deg rotation - cart. axis [1,0,0]
     3C2''    3    9   10
          180 deg rotation - cart. axis [0,1,0]
     i       13
          inversion
     2S3     17   18
          inv.  60 deg rotation - cryst. axis [0,0,1]
     2S6     19   20
          inv. 120 deg rotation - cryst. axis [0,0,1]
     s_h     14
          inv. 180 deg rotation - cart. axis [0,0,1]
     3s_d    16   24   23
          inv. 180 deg rotation - cart. axis [1,0,0]
     3s_v    15   21   22
          inv. 180 deg rotation - cart. axis [0,1,0]

   Cartesian axes

     site n.     atom                  positions (alat units)
         1           W   tau(   1) = (  -0.0000005   0.5773506   1.1322981  )
         2           W   tau(   2) = (   0.5000005   0.2886748   3.3968987  )
         3           Se  tau(   3) = (   0.5000005   0.2886748   1.6376175  )
         4           Se  tau(   4) = (  -0.0000005   0.5773506   3.9022137  )
         5           Se  tau(   5) = (   0.5000005   0.2886748   0.6269831  )
         6           Se  tau(   6) = (  -0.0000005   0.5773506   2.8915793  )

   Crystallographic axes

     site n.     atom                  positions (cryst. coord.)
         1           W   tau(   1) = (  0.3333330  0.6666670  0.2499990  )
         2           W   tau(   2) = (  0.6666670  0.3333330  0.7499980  )
         3           Se  tau(   3) = (  0.6666670  0.3333330  0.3615680  )
         4           Se  tau(   4) = (  0.3333330  0.6666670  0.8615660  )
         5           Se  tau(   5) = (  0.6666670  0.3333330  0.1384310  )
         6           Se  tau(   6) = (  0.3333330  0.6666670  0.6384290  )

     number of k points=   270
                       cart. coord. in units 2pi/alat
        k(    1) = (   0.0000000   0.0000000   0.0000000), wk =   0.0004883
        k(    2) = (   0.0000000   0.0000000   0.0137993), wk =   0.0009766
        k(    3) = (   0.0000000   0.0000000   0.0275986), wk =   0.0009766
        k(    4) = (   0.0000000   0.0000000   0.0413979), wk =   0.0009766
        k(    5) = (   0.0000000   0.0000000   0.0551973), wk =   0.0009766
        k(    6) = (   0.0000000   0.0000000   0.0689966), wk =   0.0009766
        k(    7) = (   0.0000000   0.0000000   0.0827959), wk =   0.0009766
        k(    8) = (   0.0000000   0.0000000   0.0965952), wk =   0.0009766
        k(    9) = (   0.0000000   0.0000000  -0.1103945), wk =   0.0004883
[...]
        k(  257) = (   0.2500000   0.3750000   0.2500000), wk =   0.0058594
        k(  258) = (   0.2500000   0.3750000   0.3125000), wk =   0.0058594
        k(  259) = (   0.2500000   0.3750000   0.3750000), wk =   0.0058594
        k(  260) = (   0.2500000   0.3750000   0.4375000), wk =   0.0058594
        k(  261) = (   0.2500000   0.3750000  -0.5000000), wk =   0.0029297
        k(  262) = (   0.3125000   0.3125000   0.0000000), wk =   0.0029297
        k(  263) = (   0.3125000   0.3125000   0.0625000), wk =   0.0058594
        k(  264) = (   0.3125000   0.3125000   0.1250000), wk =   0.0058594
        k(  265) = (   0.3125000   0.3125000   0.1875000), wk =   0.0058594
        k(  266) = (   0.3125000   0.3125000   0.2500000), wk =   0.0058594
        k(  267) = (   0.3125000   0.3125000   0.3125000), wk =   0.0058594
        k(  268) = (   0.3125000   0.3125000   0.3750000), wk =   0.0058594
        k(  269) = (   0.3125000   0.3125000   0.4375000), wk =   0.0058594
        k(  270) = (   0.3125000   0.3125000  -0.5000000), wk =   0.0029297

     Atomic positions and unit cell read from directory:
     ./tmp/WSe2.save/

     The initial density is read from file :
     ./tmp/WSe2.save/charge-density

     negative rho (up, down):  2.793E-04 0.000E+00
     Starting wfcs from file
     Checking if some PAW data can be deallocated...

     Self-consistent Calculation

     iteration #  1     ecut=    50.00 Ry     beta= 0.60
     Davidson diagonalization with overlap
     ethr =  1.00E-05,  avg # of iterations =  1.0

     Threshold (ethr) on eigenvalues was too large:
     Diagonalizing with lowered threshold

     Davidson diagonalization with overlap
     ethr =  6.26E-11,  avg # of iterations =  4.5

     negative rho (up, down):  2.799E-04 0.000E+00

     total energy              =   -3127.98806802 Ry
     estimated scf accuracy    <       0.00000011 Ry

[...]

     End of self-consistent calculation

          k = 0.0000 0.0000 0.0000 (  5771 PWs)   bands (ev):

   -64.6286 -64.6284 -38.0462 -38.0462 -38.0424 -38.0424 -38.0397 -38.0397
   -38.0362 -38.0362 -38.0138 -38.0137 -38.0102 -38.0102 -38.0069 -38.0069
   -38.0036 -38.0036 -37.9995 -37.9959 -37.9928 -37.9894 -28.8342 -28.8340
   -28.7318 -28.7318 -28.7316 -28.7316  -5.1831  -5.1528  -3.9798  -3.9255
     3.2628   3.5220   6.9332   7.1704   7.1704   7.1720   7.1720   7.8028
     8.2567   8.2568   8.2618   8.2620   8.9533   9.4392

     occupation numbers
     1.0000   1.0000   1.0000   1.0000   1.0000   1.0000   1.0000   1.0000
     1.0000   1.0000   1.0000   1.0000   1.0000   1.0000   1.0000   1.0000
     1.0000   1.0000   1.0000   1.0000   1.0000   1.0000   1.0000   1.0000
     1.0000   1.0000   1.0000   1.0000   1.0000   1.0000   1.0000   1.0000
     1.0000   1.0000   1.0000   1.0000   1.0000   1.0000   1.0000   1.0000
     1.0000   1.0000   1.0000   1.0000   1.0000   1.0000

[...]

     highest occupied level (ev):     9.4626

!    total energy              =   -3127.98806809 Ry

     total all-electron energy =    -84012.712632 Ry
     estimated scf accuracy    <          1.3E-10 Ry

     The total energy is the sum of the following terms:
     one-electron contribution =   -1164.64559131 Ry
     hartree contribution      =     604.12880277 Ry
     xc contribution           =    -194.02874082 Ry
     ewald contribution        =    -598.62721372 Ry
     one-center paw contrib.   =   -1774.81532502 Ry
      -> PAW hartree energy AE =     182.47465422 Ry
      -> PAW hartree energy PS =    -181.49094789 Ry
      -> PAW xc energy AE      =   -1289.20143825 Ry
      -> PAW xc energy PS      =      77.12131078 Ry
      -> total E_H with PAW    =     605.11250910 Ry
      -> total E_XC with PAW   =   -1406.10886828 Ry

     convergence has been achieved in   3 iterations

[...]

     Forces acting on atoms (cartesian axes, Ry/au):

     atom    1 type  1   force =     0.00000000    0.00000000    0.00000000
     atom    2 type  1   force =    -0.00000000   -0.00000000    0.00000000
     atom    3 type  2   force =    -0.00000000   -0.00000000   -0.00464942
     atom    4 type  2   force =     0.00000000   -0.00000000   -0.00464942
     atom    5 type  2   force =    -0.00000000    0.00000000    0.00464942
     atom    6 type  2   force =     0.00000000   -0.00000000    0.00464942
     The non-local contrib.  to forces
     atom    1 type  1   force =     0.00000000    0.00000000    0.00000000
     atom    2 type  1   force =     0.00000000   -0.00000000   -0.00000000
     atom    3 type  2   force =     0.00000000   -0.00000000   -0.73075969
     atom    4 type  2   force =     0.00000000    0.00000000   -0.73075969
     atom    5 type  2   force =    -0.00000000   -0.00000000    0.73075969
     atom    6 type  2   force =     0.00000000    0.00000000    0.73075969
     The ionic contribution  to forces
     atom    1 type  1   force =     0.00003767   -0.00002175   -0.00064355
     atom    2 type  1   force =    -0.00003767    0.00002175    0.00064355
     atom    3 type  2   force =    -0.00001895    0.00001094   50.39798022
     atom    4 type  2   force =     0.00001895   -0.00001094   50.39996695
     atom    5 type  2   force =    -0.00001895    0.00001094  -50.39996695
     atom    6 type  2   force =     0.00001895   -0.00001094  -50.39798022
     The local contribution  to forces
     atom    1 type  1   force =     0.00008969   -0.00002093    0.00129816
     atom    2 type  1   force =    -0.00021564    0.00015535    0.00298501
     atom    3 type  2   force =    -0.00154255    0.00094982  -49.67279709
     atom    4 type  2   force =     0.00053761   -0.00025116  -49.65345257
     atom    5 type  2   force =    -0.00157485    0.00096846   49.67770263
     atom    6 type  2   force =     0.00056991   -0.00026981   49.69710464
     The core correction contribution to forces
     atom    1 type  1   force =     0.00000152    0.00000232    0.00000380
     atom    2 type  1   force =     0.00000097    0.00000264    0.00000671
     atom    3 type  2   force =    -0.00000261    0.00000178    0.00244710
     atom    4 type  2   force =     0.00000101   -0.00000032    0.00248020
     atom    5 type  2   force =    -0.00000265    0.00000180   -0.00243874
     atom    6 type  2   force =     0.00000105   -0.00000034   -0.00240595
     The Hubbard contrib.    to forces
     atom    1 type  1   force =     0.00000000    0.00000000    0.00000000
     atom    2 type  1   force =     0.00000000    0.00000000    0.00000000
     atom    3 type  2   force =     0.00000000    0.00000000    0.00000000
     atom    4 type  2   force =     0.00000000    0.00000000    0.00000000
     atom    5 type  2   force =     0.00000000    0.00000000    0.00000000
     atom    6 type  2   force =     0.00000000    0.00000000    0.00000000
     The SCF correction term to forces
     atom    1 type  1   force =     0.00000000   -0.00000000    0.00000000
     atom    2 type  1   force =    -0.00000000    0.00000000    0.00000000
     atom    3 type  2   force =     0.00000000   -0.00000000   -0.00004208
     atom    4 type  2   force =    -0.00000000    0.00000000   -0.00004208
     atom    5 type  2   force =    -0.00000000    0.00000000    0.00004208
     atom    6 type  2   force =     0.00000000   -0.00000000    0.00004208

     Total force =     0.009299     Total SCF correction =     0.000084

     BFGS Geometry Optimization
     Energy error            =      0.0E+00
     Gradient error          =      4.6E-03

     number of scf cycles    =   1
     number of bfgs steps    =   0

     energy   new            =   -3127.9880680932 Ry

     new trust radius        =       0.0046494212 bohr
     new conv_thr            =       0.0000000100 Ry

ATOMIC_POSITIONS (crystal)
W             0.3333330000        0.6666670000        0.2499990000
W             0.6666670000        0.3333330000        0.7499980000
Se            0.6666670000        0.3333330000        0.3614047265
Se            0.3333330000        0.6666670000        0.8614027265
Se            0.6666670000        0.3333330000        0.1385942735
Se            0.3333330000        0.6666670000        0.6385922735

     Writing output data file ./tmp/WSe2.save/
     NEW-OLD atomic charge density approx. for the potential

[...]

     Total force =     0.006174     Total SCF correction =     0.000084
     Energy error            =      7.2E-05
     Gradient error          =      3.1E-03

[...]

     energy   old            =   -3127.9880680932 Ry
     energy   new            =   -3127.9881398265 Ry

     CASE: energy  _new < energy  _old

[...]

     Total force =     0.002683     Total SCF correction =     0.000174
     Energy error            =      4.4E-05
     Gradient error          =      1.3E-03

     number of scf cycles    =   3
     number of bfgs steps    =   2

     energy   old            =   -3127.9881398265 Ry
     energy   new            =   -3127.9881842899 Ry

     CASE: energy  _new < energy  _old

     new trust radius        =       0.0039314935 bohr
     new conv_thr            =       0.0000000033 Ry

ATOMIC_POSITIONS (crystal)
W             0.3333330000        0.6666670000        0.2499990000
W             0.6666670000        0.3333330000        0.7499980000
Se            0.6666670000        0.3333330000        0.3610870637
Se            0.3333330000        0.6666670000        0.8610850637
Se            0.6666670000        0.3333330000        0.1389119363
Se            0.3333330000        0.6666670000        0.6389099363

     Writing output data file ./tmp/WSe2.save/
     NEW-OLD atomic charge density approx. for the potential

[...]

     Self-consistent Calculation

[...]

     Threshold (ethr) on eigenvalues was too large:
     Diagonalizing with lowered threshold

     Davidson diagonalization with overlap
     ethr =  7.23E-09,  avg # of iterations =  6.0

[...]

     total energy              =   -3127.98819378 Ry
     estimated scf accuracy    <       0.00000002 Ry

     iteration #  6     ecut=    50.00 Ry     beta= 0.60
     Davidson diagonalization with overlap
     ethr =  2.26E-11,  avg # of iterations =  3.7

[...]

     End of self-consistent calculation

[...]

          k = 0.3125 0.5413-0.1104 (  5822 PWs)   bands (ev):

   -64.6142 -64.6139 -38.0479 -38.0472 -38.0442 -38.0434 -38.0413 -38.0406
   -38.0378 -38.0371 -38.0175 -38.0169 -38.0139 -38.0133 -38.0108 -38.0103
   -38.0074 -38.0069 -38.0001 -37.9966 -37.9932 -37.9900 -28.8896 -28.8894
   -28.8554 -28.8552 -28.7844 -28.7842  -3.0473  -3.0471  -2.9017  -2.9015
     4.2260   4.2277   4.2350   4.2365   5.2917   5.2918   5.7637   5.7641
     6.2432   6.2435   7.2028   7.2029   9.4298   9.4299

     occupation numbers
     1.0000   1.0000   1.0000   1.0000   1.0000   1.0000   1.0000   1.0000
     1.0000   1.0000   1.0000   1.0000   1.0000   1.0000   1.0000   1.0000
     1.0000   1.0000   1.0000   1.0000   1.0000   1.0000   1.0000   1.0000
     1.0000   1.0000   1.0000   1.0000   1.0000   1.0000   1.0000   1.0000
     1.0000   1.0000   1.0000   1.0000   1.0000   1.0000   1.0000   1.0000
     1.0000   1.0000   1.0000   1.0000   1.0000   1.0000

     highest occupied level (ev):     9.4563

!    total energy              =   -3127.98819378 Ry

     total all-electron energy =    -84012.712758 Ry
     estimated scf accuracy    <          2.1E-10 Ry

     The total energy is the sum of the following terms:
     one-electron contribution =   -1170.13106789 Ry
     hartree contribution      =     606.86480511 Ry
     xc contribution           =    -194.05126078 Ry
     ewald contribution        =    -595.85402454 Ry
     one-center paw contrib.   =   -1774.81664568 Ry
      -> PAW hartree energy AE =     182.69518729 Ry
      -> PAW hartree energy PS =    -181.71132407 Ry
      -> PAW xc energy AE      =   -1289.22160877 Ry
      -> PAW xc energy PS      =      77.14058576 Ry
      -> total E_H with PAW    =     607.84866833 Ry
      -> total E_XC with PAW   =   -1406.13228378 Ry

     convergence has been achieved in   6 iterations

     negative rho (up, down):  4.645E-04 0.000E+00

     Forces acting on atoms (cartesian axes, Ry/au):

     atom    1 type  1   force =    -0.00000000   -0.00000000   -0.00000000
     atom    2 type  1   force =     0.00000000    0.00000000    0.00000000
     atom    3 type  2   force =     0.00000000    0.00000000    0.00005714
     atom    4 type  2   force =    -0.00000000    0.00000000    0.00005714
     atom    5 type  2   force =     0.00000000   -0.00000000   -0.00005714
     atom    6 type  2   force =     0.00000000    0.00000000   -0.00005714
     The non-local contrib.  to forces
     atom    1 type  1   force =     0.00000000    0.00000000    0.00000000
     atom    2 type  1   force =     0.00000000   -0.00000000   -0.00000000
     atom    3 type  2   force =     0.00000000   -0.00000000   -0.73296824
     atom    4 type  2   force =    -0.00000000    0.00000000   -0.73296824
     atom    5 type  2   force =     0.00000000    0.00000000    0.73296824
     atom    6 type  2   force =    -0.00000000    0.00000000    0.73296824
     The ionic contribution  to forces
     atom    1 type  1   force =     0.00003819   -0.00002205   -0.00064590
     atom    2 type  1   force =    -0.00003819    0.00002205    0.00064590
     atom    3 type  2   force =    -0.00001921    0.00001109   50.84609503
     atom    4 type  2   force =     0.00001921   -0.00001109   50.84807954
     atom    5 type  2   force =    -0.00001921    0.00001109  -50.84807954
     atom    6 type  2   force =     0.00001921   -0.00001109  -50.84609503
     The local contribution  to forces
     atom    1 type  1   force =     0.00008958   -0.00002087    0.00130225
     atom    2 type  1   force =    -0.00021532    0.00015517    0.00299390
     atom    3 type  2   force =    -0.00154222    0.00094963  -50.11396398
     atom    4 type  2   force =     0.00053736   -0.00025102  -50.09461672
     atom    5 type  2   force =    -0.00157494    0.00096852   50.11887136
     atom    6 type  2   force =     0.00057008   -0.00026991   50.13827846
     The core correction contribution to forces
     atom    1 type  1   force =     0.00000152    0.00000232    0.00000376
     atom    2 type  1   force =     0.00000098    0.00000264    0.00000664
     atom    3 type  2   force =    -0.00000261    0.00000178    0.00241316
     atom    4 type  2   force =     0.00000101   -0.00000031    0.00244626
     atom    5 type  2   force =    -0.00000265    0.00000180   -0.00240480
     atom    6 type  2   force =     0.00000105   -0.00000034   -0.00237202
     The Hubbard contrib.    to forces
     atom    1 type  1   force =     0.00000000    0.00000000    0.00000000
     atom    2 type  1   force =     0.00000000    0.00000000    0.00000000
     atom    3 type  2   force =     0.00000000    0.00000000    0.00000000
     atom    4 type  2   force =     0.00000000    0.00000000    0.00000000
     atom    5 type  2   force =     0.00000000    0.00000000    0.00000000
     atom    6 type  2   force =     0.00000000    0.00000000    0.00000000
     The SCF correction term to forces
     atom    1 type  1   force =    -0.00000000    0.00000000    0.00000000
     atom    2 type  1   force =    -0.00000000    0.00000000   -0.00000000
     atom    3 type  2   force =     0.00000000   -0.00000000   -0.00003833
     atom    4 type  2   force =    -0.00000000    0.00000000   -0.00003833
     atom    5 type  2   force =    -0.00000000   -0.00000000    0.00003833
     atom    6 type  2   force =     0.00000000   -0.00000000    0.00003833

     Total force =     0.000114     Total SCF correction =     0.000077
     SCF correction compared to forces is large: reduce conv_thr to get better values
     Energy error            =      9.5E-06
     Gradient error          =      5.7E-05

     bfgs converged in   4 scf cycles and   3 bfgs steps
     (criteria: energy <  1.0E-04 Ry, force <  1.0E-03 Ry/Bohr)

     End of BFGS Geometry Optimization

     Final energy   =   -3127.9881937804 Ry

     File ./tmp/WSe2.bfgs deleted, as requested
Begin final coordinates

ATOMIC_POSITIONS (crystal)
W             0.3333330000        0.6666670000        0.2499990000
W             0.6666670000        0.3333330000        0.7499980000
Se            0.6666670000        0.3333330000        0.3610870637
Se            0.3333330000        0.6666670000        0.8610850637
Se            0.6666670000        0.3333330000        0.1389119363
Se            0.3333330000        0.6666670000        0.6389099363
End final coordinates

     Writing output data file ./tmp/WSe2.save/

     General routines

     Parallel routines

     PAW routines

   This run was terminated on:  20:38:57   6Sep2024

   JOB DONE.