     Program PWSCF v.6.7MaX starts on  6Sep2024 at 17: 0:37

     R & G space division:  proc/nbgrp/npool/nimage =       4
     Reading input from WSe2_SCF.inp

     Current dimensions of program PWSCF are:
     Max number of different atomic species (ntypx) = 10
     Max number of k-points (npk) =  40000
     Max angular momentum in pseudopotentials (lmaxx) =  3
     file W.pbe-spn-kjpaw_psl.1.0.0.UPF: wavefunction(s)  6S 5P 5D renormalized
     file Se.pbe-dn-kjpaw_psl.1.0.0.UPF: wavefunction(s)  4S 4P 3D renormalized

     IMPORTANT: XC functional enforced from input :
     Exchange-correlation= PBE
                           (   1   4   3   4   0   0   0)
     Any further DFT definition will be discarded
     Please, verify this is what you really want

     bravais-lattice index     =            4
     lattice parameter (alat)  =       6.2873  a.u.
     unit-cell volume          =     974.8449 (a.u.)^3
     number of atoms/cell      =            6
     number of atomic types    =            2
     number of electrons       =        92.00
     number of Kohn-Sham states=           46
     kinetic-energy cutoff     =      50.0000  Ry
     charge density cutoff     =     475.0000  Ry
     scf convergence threshold =      1.0E-08
     mixing beta               =       0.6000
     number of iterations used =            8  plain     mixing
     Exchange-correlation= PBE
                           (   1   4   3   4   0   0   0)

     celldm(1)=   6.287251  celldm(2)=   0.000000  celldm(3)=   4.529210
     celldm(4)=   0.000000  celldm(5)=   0.000000  celldm(6)=   0.000000

     crystal axes: (cart. coord. in units of alat)
               a(1) = (   1.000000   0.000000   0.000000 )
               a(2) = (  -0.500000   0.866025   0.000000 )
               a(3) = (   0.000000   0.000000   4.529210 )

     reciprocal axes: (cart. coord. in units 2 pi/alat)
               b(1) = (  1.000000  0.577350 -0.000000 )
               b(2) = (  0.000000  1.154701  0.000000 )
               b(3) = (  0.000000 -0.000000  0.220789 )

     PseudoPot. # 1 for W  read from file:
     /home/alessandro_rotondi/q-e/pseudo/W.pbe-spn-kjpaw_psl.1.0.0.UPF
     MD5 check sum: 03c3df5b60893f488392c7401945500a
     Pseudo is Projector augmented-wave + core cor, Zval = 14.0
     Generated using &quot;atomic&quot; code by A. Dal Corso  v.6.2.2
     Shape of augmentation charge: PSQ
     Using radial grid of 1273 points,  6 beta functions with:
                l(1) =   0
                l(2) =   0
                l(3) =   1
                l(4) =   1
                l(5) =   2
                l(6) =   2
     Q(r) pseudized with 0 coefficients

     PseudoPot. # 2 for Se read from file:
     /home/alessandro_rotondi/q-e/pseudo/Se.pbe-dn-kjpaw_psl.1.0.0.UPF
     MD5 check sum: ac240dd2bae32a30e0bf3a38df9c8785
     Pseudo is Projector augmented-wave + core cor, Zval = 16.0
     Generated using &quot;atomic&quot; code by A. Dal Corso  v.6.3
     Shape of augmentation charge: PSQ
     Using radial grid of 1211 points,  6 beta functions with:
                l(1) =   0
                l(2) =   0
                l(3) =   1
                l(4) =   1
                l(5) =   2
                l(6) =   2
     Q(r) pseudized with 0 coefficients

     atomic species   valence    mass     pseudopotential
        W             14.00   183.84000     W ( 1.00)
        Se            16.00    78.96000     Se( 1.00)

     24 Sym. Ops., with inversion, found (12 have fractional translation)

                                    s                        frac. trans.

      isym =  1     identity

 cryst.   s( 1) = (     1          0          0      )
                  (     0          1          0      )
                  (     0          0          1      )

 cart.    s( 1) = (  1.0000000  0.0000000  0.0000000 )
                  (  0.0000000  1.0000000  0.0000000 )
                  (  0.0000000  0.0000000  1.0000000 )

      isym =  2     180 deg rotation - cart. axis [0,0,1]

 cryst.   s( 2) = (    -1          0          0      )    f =(  0.0000000 )
                  (     0         -1          0      )       (  0.0000000 )
                  (     0          0          1      )       (  0.4999990 )

 cart.    s( 2) = ( -1.0000000  0.0000000  0.0000000 )    f =(  0.0000000 )
                  (  0.0000000 -1.0000000  0.0000000 )       (  0.0000000 )
                  (  0.0000000  0.0000000  1.0000000 )       (  2.2646007 )

[...]

      isym =  4     180 deg rotation - cart. axis [1,0,0]

[...]

      isym =  5      60 deg rotation - cryst. axis [0,0,1]

[...]

 cryst.   s( 8) = (    -1         -1          0      )
                  (     1          0          0      )
                  (     0          0          1      )

 cart.    s( 8) = ( -0.5000000  0.8660254  0.0000000 )
                  ( -0.8660254 -0.5000000  0.0000000 )
                  (  0.0000000  0.0000000  1.0000000 )

[...]

 cryst.   s( 9) = (     0         -1          0      )    f =(  0.0000000 )
                  (    -1          0          0      )       (  0.0000000 )
                  (     0          0         -1      )       ( -0.4999980 )

 cart.    s( 9) = (  0.5000000 -0.8660254  0.0000000 )    f =(  0.0000000 )
                  ( -0.8660254 -0.5000000  0.0000000 )       (  0.0000000 )
                  (  0.0000000  0.0000000 -1.0000000 )       ( -2.2645961 )

[...]

 cryst.   s(10) = (     1          1          0      )    f =(  0.0000000 )
                  (     0         -1          0      )       ( -0.0000010 )
                  (     0          0         -1      )       ( -0.4999980 )

 cart.    s(10) = (  0.5000000  0.8660254  0.0000000 )    f =(  0.0000005 )
                  (  0.8660254 -0.5000000  0.0000000 )       ( -0.0000009 )
                  (  0.0000000  0.0000000 -1.0000000 )       ( -2.2645961 )

[...]

 cryst.   s(11) = (    -1         -1          0      )
                  (     0          1          0      )
                  (     0          0         -1      )

 cart.    s(11) = ( -0.5000000 -0.8660254  0.0000000 )
                  ( -0.8660254  0.5000000  0.0000000 )
                  (  0.0000000  0.0000000 -1.0000000 )

      isym = 12     180 deg rotation - cryst. axis [1,1,0]

[...]

      isym = 13     inversion

[...]

      isym = 14     inv. 180 deg rotation - cart. axis [0,0,1]

[...]

      isym = 16     inv. 180 deg rotation - cart. axis [1,0,0]

[...]

      isym = 17     inv.  60 deg rotation - cryst. axis [0,0,1]

[...]

 cryst.   s(22) = (    -1         -1          0      )    f =(  0.0000000 )
                  (     0          1          0      )       ( -0.0000010 )
                  (     0          0          1      )       (  0.4999990 )

 cart.    s(22) = ( -0.5000000 -0.8660254  0.0000000 )    f =(  0.0000005 )
                  ( -0.8660254  0.5000000  0.0000000 )       ( -0.0000009 )
                  (  0.0000000  0.0000000  1.0000000 )       (  2.2646007 )

[...]

      isym = 24     inv. 180 deg rotation - cryst. axis [1,1,0]

 cryst.   s(24) = (     0         -1          0      )
                  (    -1          0          0      )
                  (     0          0          1      )

 cart.    s(24) = (  0.5000000 -0.8660254  0.0000000 )
                  ( -0.8660254 -0.5000000  0.0000000 )
                  (  0.0000000  0.0000000  1.0000000 )

     point group D_6h(6/mmm)
     there are 12 classes
     the character table:

       E     2C6   2C3   C2    3C2'  3C2'' i     2S3   2S6   s_h   3s_d  3s_v
A_1g   1.00  1.00  1.00  1.00  1.00  1.00  1.00  1.00  1.00  1.00  1.00  1.00
A_2g   1.00  1.00  1.00  1.00 -1.00 -1.00  1.00  1.00  1.00  1.00 -1.00 -1.00
B_1g   1.00 -1.00  1.00 -1.00  1.00 -1.00  1.00 -1.00  1.00 -1.00  1.00 -1.00
B_2g   1.00 -1.00  1.00 -1.00 -1.00  1.00  1.00 -1.00  1.00 -1.00 -1.00  1.00
E_1g   2.00  1.00 -1.00 -2.00  0.00  0.00  2.00  1.00 -1.00 -2.00  0.00  0.00
E_2g   2.00 -1.00 -1.00  2.00  0.00  0.00  2.00 -1.00 -1.00  2.00  0.00  0.00
A_1u   1.00  1.00  1.00  1.00  1.00  1.00 -1.00 -1.00 -1.00 -1.00 -1.00 -1.00
A_2u   1.00  1.00  1.00  1.00 -1.00 -1.00 -1.00 -1.00 -1.00 -1.00  1.00  1.00
B_1u   1.00 -1.00  1.00 -1.00  1.00 -1.00 -1.00  1.00 -1.00  1.00 -1.00  1.00
B_2u   1.00 -1.00  1.00 -1.00 -1.00  1.00 -1.00  1.00 -1.00  1.00  1.00 -1.00
E_1u   2.00  1.00 -1.00 -2.00  0.00  0.00 -2.00 -1.00  1.00  2.00  0.00  0.00
E_2u   2.00 -1.00 -1.00  2.00  0.00  0.00 -2.00  1.00  1.00 -2.00  0.00  0.00

     the symmetry operations in each class and the name of the first element:

     E        1
          identity
     2C6      5    6
           60 deg rotation - cryst. axis [0,0,1]
     2C3      7    8
          120 deg rotation - cryst. axis [0,0,1]
     C2       2
          180 deg rotation - cart. axis [0,0,1]
     3C2'     4   12   11
          180 deg rotation - cart. axis [1,0,0]
     3C2''    3    9   10
          180 deg rotation - cart. axis [0,1,0]
     i       13
          inversion
     2S3     17   18
          inv.  60 deg rotation - cryst. axis [0,0,1]
     2S6     19   20
          inv. 120 deg rotation - cryst. axis [0,0,1]
     s_h     14
          inv. 180 deg rotation - cart. axis [0,0,1]
     3s_d    16   24   23
          inv. 180 deg rotation - cart. axis [1,0,0]
     3s_v    15   21   22
          inv. 180 deg rotation - cart. axis [0,1,0]

   Cartesian axes

     site n.     atom                  positions (alat units)
         1           W   tau(   1) = (  -0.0000005   0.5773506   1.1322981  )
         2           W   tau(   2) = (   0.5000005   0.2886748   3.3968987  )
         3           Se  tau(   3) = (   0.5000005   0.2886748   1.6376175  )
         4           Se  tau(   4) = (  -0.0000005   0.5773506   3.9022137  )
         5           Se  tau(   5) = (   0.5000005   0.2886748   0.6269831  )
         6           Se  tau(   6) = (  -0.0000005   0.5773506   2.8915793  )

   Crystallographic axes

     site n.     atom                  positions (cryst. coord.)
         1           W   tau(   1) = (  0.3333330  0.6666670  0.2499990  )
         2           W   tau(   2) = (  0.6666670  0.3333330  0.7499980  )
         3           Se  tau(   3) = (  0.6666670  0.3333330  0.3615680  )
         4           Se  tau(   4) = (  0.3333330  0.6666670  0.8615660  )
         5           Se  tau(   5) = (  0.6666670  0.3333330  0.1384310  )
         6           Se  tau(   6) = (  0.3333330  0.6666670  0.6384290  )

     number of k points=   270
                       cart. coord. in units 2pi/alat
        k(    1) = (   0.0000000   0.0000000   0.0000000), wk =   0.0004883
        k(    2) = (   0.0000000   0.0000000   0.0137993), wk =   0.0009766
        k(    3) = (   0.0000000   0.0000000   0.0275986), wk =   0.0009766
        k(    4) = (   0.0000000   0.0000000   0.0413979), wk =   0.0009766
        k(    5) = (   0.0000000   0.0000000   0.0551973), wk =   0.0009766
        k(    6) = (   0.0000000   0.0000000   0.0689966), wk =   0.0009766
        k(    7) = (   0.0000000   0.0000000   0.0827959), wk =   0.0009766
        k(    8) = (   0.0000000   0.0000000   0.0965952), wk =   0.0009766
[...]
        k(   37) = (   0.0000000   0.2886751   0.0000000), wk =   0.0029297
        k(   38) = (   0.0000000   0.2886751   0.0137993), wk =   0.0058594
        k(   39) = (   0.0000000   0.2886751   0.0275986), wk =   0.0058594
        k(   40) = (   0.0000000   0.2886751   0.0413979), wk =   0.0058594
        k(   41) = (   0.0000000   0.2886751   0.0551973), wk =   0.0058594
        k(   42) = (   0.0000000   0.2886751   0.0689966), wk =   0.0058594
        k(   43) = (   0.0000000   0.2886751   0.0827959), wk =   0.0058594
        k(   44) = (   0.0000000   0.2886751   0.0965952), wk =   0.0058594
        k(   45) = (   0.0000000   0.2886751  -0.1103945), wk =   0.0029297
        k(   46) = (   0.0000000   0.3608439   0.0000000), wk =   0.0029297
        k(   47) = (   0.0000000   0.3608439   0.0137993), wk =   0.0058594
        k(   48) = (   0.0000000   0.3608439   0.0275986), wk =   0.0058594
        k(   49) = (   0.0000000   0.3608439   0.0413979), wk =   0.0058594
        k(   50) = (   0.0000000   0.3608439   0.0551973), wk =   0.0058594
        k(   51) = (   0.0000000   0.3608439   0.0689966), wk =   0.0058594
        k(   52) = (   0.0000000   0.3608439   0.0827959), wk =   0.0058594
        k(   53) = (   0.0000000   0.3608439   0.0965952), wk =   0.0058594
        k(   54) = (   0.0000000   0.3608439  -0.1103945), wk =   0.0029297
        k(   55) = (   0.0000000   0.4330127   0.0000000), wk =   0.0029297
        k(   56) = (   0.0000000   0.4330127   0.0137993), wk =   0.0058594
        k(   57) = (   0.0000000   0.4330127   0.0275986), wk =   0.0058594
        k(   58) = (   0.0000000   0.4330127   0.0413979), wk =   0.0058594
        k(   59) = (   0.0000000   0.4330127   0.0551973), wk =   0.0058594
        k(   60) = (   0.0000000   0.4330127   0.0689966), wk =   0.0058594
[...]
        k(  256) = (   0.2500000   0.5773503   0.0413979), wk =   0.0058594
        k(  257) = (   0.2500000   0.5773503   0.0551973), wk =   0.0058594
        k(  258) = (   0.2500000   0.5773503   0.0689966), wk =   0.0058594
        k(  259) = (   0.2500000   0.5773503   0.0827959), wk =   0.0058594
        k(  260) = (   0.2500000   0.5773503   0.0965952), wk =   0.0058594
        k(  261) = (   0.2500000   0.5773503  -0.1103945), wk =   0.0029297
        k(  262) = (   0.3125000   0.5412659   0.0000000), wk =   0.0029297
        k(  263) = (   0.3125000   0.5412659   0.0137993), wk =   0.0058594
        k(  264) = (   0.3125000   0.5412659   0.0275986), wk =   0.0058594
        k(  265) = (   0.3125000   0.5412659   0.0413979), wk =   0.0058594
        k(  266) = (   0.3125000   0.5412659   0.0551973), wk =   0.0058594
        k(  267) = (   0.3125000   0.5412659   0.0689966), wk =   0.0058594
        k(  268) = (   0.3125000   0.5412659   0.0827959), wk =   0.0058594
        k(  269) = (   0.3125000   0.5412659   0.0965952), wk =   0.0058594
        k(  270) = (   0.3125000   0.5412659  -0.1103945), wk =   0.0029297

                       cryst. coord.
        k(    1) = (   0.0000000   0.0000000   0.0000000), wk =   0.0004883
        k(    2) = (   0.0000000   0.0000000   0.0625000), wk =   0.0009766
        k(    3) = (   0.0000000   0.0000000   0.1250000), wk =   0.0009766
        k(    4) = (   0.0000000   0.0000000   0.1875000), wk =   0.0009766
        k(    5) = (   0.0000000   0.0000000   0.2500000), wk =   0.0009766
        k(    6) = (   0.0000000   0.0000000   0.3125000), wk =   0.0009766
        k(    7) = (   0.0000000   0.0000000   0.3750000), wk =   0.0009766
        k(    8) = (   0.0000000   0.0000000   0.4375000), wk =   0.0009766
        k(    9) = (   0.0000000   0.0000000  -0.5000000), wk =   0.0004883
        k(   10) = (   0.0000000   0.0625000   0.0000000), wk =   0.0029297
        k(   11) = (   0.0000000   0.0625000   0.0625000), wk =   0.0058594
        k(   12) = (   0.0000000   0.0625000   0.1250000), wk =   0.0058594
        k(   13) = (   0.0000000   0.0625000   0.1875000), wk =   0.0058594
        k(   14) = (   0.0000000   0.0625000   0.2500000), wk =   0.0058594
        k(   15) = (   0.0000000   0.0625000   0.3125000), wk =   0.0058594
        k(   16) = (   0.0000000   0.0625000   0.3750000), wk =   0.0058594
        k(   17) = (   0.0000000   0.0625000   0.4375000), wk =   0.0058594
        k(   18) = (   0.0000000   0.0625000  -0.5000000), wk =   0.0029297
        k(   19) = (   0.0000000   0.1250000   0.0000000), wk =   0.0029297
        k(   20) = (   0.0000000   0.1250000   0.0625000), wk =   0.0058594
        k(   21) = (   0.0000000   0.1250000   0.1250000), wk =   0.0058594
        k(   22) = (   0.0000000   0.1250000   0.1875000), wk =   0.0058594
        k(   23) = (   0.0000000   0.1250000   0.2500000), wk =   0.0058594
        k(   24) = (   0.0000000   0.1250000   0.3125000), wk =   0.0058594
        k(   25) = (   0.0000000   0.1250000   0.3750000), wk =   0.0058594
        k(   26) = (   0.0000000   0.1250000   0.4375000), wk =   0.0058594
        k(   27) = (   0.0000000   0.1250000  -0.5000000), wk =   0.0029297
        k(   28) = (   0.0000000   0.1875000   0.0000000), wk =   0.0029297
        k(   29) = (   0.0000000   0.1875000   0.0625000), wk =   0.0058594
        k(   30) = (   0.0000000   0.1875000   0.1250000), wk =   0.0058594
        k(   31) = (   0.0000000   0.1875000   0.1875000), wk =   0.0058594
        k(   32) = (   0.0000000   0.1875000   0.2500000), wk =   0.0058594
        k(   33) = (   0.0000000   0.1875000   0.3125000), wk =   0.0058594
        k(   34) = (   0.0000000   0.1875000   0.3750000), wk =   0.0058594
        k(   35) = (   0.0000000   0.1875000   0.4375000), wk =   0.0058594
        k(   36) = (   0.0000000   0.1875000  -0.5000000), wk =   0.0029297
        k(   37) = (   0.0000000   0.2500000   0.0000000), wk =   0.0029297
        k(   38) = (   0.0000000   0.2500000   0.0625000), wk =   0.0058594
        k(   39) = (   0.0000000   0.2500000   0.1250000), wk =   0.0058594
        k(   40) = (   0.0000000   0.2500000   0.1875000), wk =   0.0058594
        k(   41) = (   0.0000000   0.2500000   0.2500000), wk =   0.0058594
        k(   42) = (   0.0000000   0.2500000   0.3125000), wk =   0.0058594
        k(   43) = (   0.0000000   0.2500000   0.3750000), wk =   0.0058594
        k(   44) = (   0.0000000   0.2500000   0.4375000), wk =   0.0058594
        k(   45) = (   0.0000000   0.2500000  -0.5000000), wk =   0.0029297
        k(   46) = (   0.0000000   0.3125000   0.0000000), wk =   0.0029297
        k(   47) = (   0.0000000   0.3125000   0.0625000), wk =   0.0058594
        k(   48) = (   0.0000000   0.3125000   0.1250000), wk =   0.0058594
        k(   49) = (   0.0000000   0.3125000   0.1875000), wk =   0.0058594
        k(   50) = (   0.0000000   0.3125000   0.2500000), wk =   0.0058594
        k(   51) = (   0.0000000   0.3125000   0.3125000), wk =   0.0058594
        k(   52) = (   0.0000000   0.3125000   0.3750000), wk =   0.0058594
        k(   53) = (   0.0000000   0.3125000   0.4375000), wk =   0.0058594
        k(   54) = (   0.0000000   0.3125000  -0.5000000), wk =   0.0029297
        k(   55) = (   0.0000000   0.3750000   0.0000000), wk =   0.0029297
        k(   56) = (   0.0000000   0.3750000   0.0625000), wk =   0.0058594
        k(   57) = (   0.0000000   0.3750000   0.1250000), wk =   0.0058594
        k(   58) = (   0.0000000   0.3750000   0.1875000), wk =   0.0058594
        k(   59) = (   0.0000000   0.3750000   0.2500000), wk =   0.0058594
        k(   60) = (   0.0000000   0.3750000   0.3125000), wk =   0.0058594
[...]
        k(  256) = (   0.2500000   0.3750000   0.1875000), wk =   0.0058594
        k(  257) = (   0.2500000   0.3750000   0.2500000), wk =   0.0058594
        k(  258) = (   0.2500000   0.3750000   0.3125000), wk =   0.0058594
        k(  259) = (   0.2500000   0.3750000   0.3750000), wk =   0.0058594
        k(  260) = (   0.2500000   0.3750000   0.4375000), wk =   0.0058594
        k(  261) = (   0.2500000   0.3750000  -0.5000000), wk =   0.0029297
        k(  262) = (   0.3125000   0.3125000   0.0000000), wk =   0.0029297
        k(  263) = (   0.3125000   0.3125000   0.0625000), wk =   0.0058594
        k(  264) = (   0.3125000   0.3125000   0.1250000), wk =   0.0058594
        k(  265) = (   0.3125000   0.3125000   0.1875000), wk =   0.0058594
        k(  266) = (   0.3125000   0.3125000   0.2500000), wk =   0.0058594
        k(  267) = (   0.3125000   0.3125000   0.3125000), wk =   0.0058594
        k(  268) = (   0.3125000   0.3125000   0.3750000), wk =   0.0058594
        k(  269) = (   0.3125000   0.3125000   0.4375000), wk =   0.0058594
        k(  270) = (   0.3125000   0.3125000  -0.5000000), wk =   0.0029297

     Initial potential from superposition of free atoms

     starting charge   91.99858, renormalised to   92.00000
     Starting wfcs are   62 randomized atomic wfcs
     Checking if some PAW data can be deallocated...

     Self-consistent Calculation

     iteration #  1     ecut=    50.00 Ry     beta= 0.60
     Davidson diagonalization with overlap
     ethr =  1.00E-02,  avg # of iterations =  2.0

     Threshold (ethr) on eigenvalues was too large:
     Diagonalizing with lowered threshold

     Davidson diagonalization with overlap
     ethr =  1.17E-04,  avg # of iterations =  3.3

     total energy              =   -3127.95546504 Ry
     estimated scf accuracy    <       0.13953936 Ry

[...]

     negative rho (up, down):  2.205E-04 0.000E+00

[...]

     total energy              =   -3127.98806808 Ry
     estimated scf accuracy    <       0.00000007 Ry

     iteration # 11     ecut=    50.00 Ry     beta= 0.60
     Davidson diagonalization with overlap
     ethr =  7.89E-11,  avg # of iterations =  2.8

     negative rho (up, down):  2.793E-04 0.000E+00

     End of self-consistent calculation

          k = 0.0000 0.0000 0.0000 (  5771 PWs)   bands (ev):

   -64.6287 -64.6284 -38.0462 -38.0462 -38.0424 -38.0424 -38.0397 -38.0397
   -38.0362 -38.0362 -38.0137 -38.0137 -38.0102 -38.0102 -38.0069 -38.0069
   -38.0036 -38.0036 -37.9995 -37.9959 -37.9928 -37.9894 -28.8342 -28.8340
   -28.7318 -28.7318 -28.7316 -28.7316  -5.1831  -5.1528  -3.9798  -3.9255
     3.2628   3.5220   6.9332   7.1704   7.1705   7.1720   7.1720   7.8028
     8.2567   8.2568   8.2618   8.2619   8.9533   9.4392

     occupation numbers
     1.0000   1.0000   1.0000   1.0000   1.0000   1.0000   1.0000   1.0000
     1.0000   1.0000   1.0000   1.0000   1.0000   1.0000   1.0000   1.0000
     1.0000   1.0000   1.0000   1.0000   1.0000   1.0000   1.0000   1.0000
     1.0000   1.0000   1.0000   1.0000   1.0000   1.0000   1.0000   1.0000
     1.0000   1.0000   1.0000   1.0000   1.0000   1.0000   1.0000   1.0000
     1.0000   1.0000   1.0000   1.0000   1.0000   1.0000

[...]

          k = 0.3125 0.5413-0.1104 (  5822 PWs)   bands (ev):

   -64.6193 -64.6190 -38.0447 -38.0440 -38.0410 -38.0402 -38.0380 -38.0374
   -38.0346 -38.0339 -38.0149 -38.0144 -38.0113 -38.0108 -38.0082 -38.0078
   -38.0049 -38.0044 -37.9979 -37.9944 -37.9911 -37.9878 -28.8893 -28.8891
   -28.8556 -28.8554 -28.7877 -28.7875  -3.0245  -3.0243  -2.8875  -2.8874
     4.2471   4.2483   4.2600   4.2611   5.3110   5.3112   5.7787   5.7792
     6.2467   6.2470   7.1921   7.1922   9.4376   9.4377

     occupation numbers
     1.0000   1.0000   1.0000   1.0000   1.0000   1.0000   1.0000   1.0000
     1.0000   1.0000   1.0000   1.0000   1.0000   1.0000   1.0000   1.0000
     1.0000   1.0000   1.0000   1.0000   1.0000   1.0000   1.0000   1.0000
     1.0000   1.0000   1.0000   1.0000   1.0000   1.0000   1.0000   1.0000
     1.0000   1.0000   1.0000   1.0000   1.0000   1.0000   1.0000   1.0000
     1.0000   1.0000   1.0000   1.0000   1.0000   1.0000

     highest occupied level (ev):     9.4626

* XDM dispersion
  a1 =     0.327500
  a2 (ang) =     2.767300
  a2 (bohr) =     5.229439

+ Volumes and moments
# All results in atomic units (Hartree,bohr)
# i        V             Vfree           M1             M2             M3
  1   1.899372E+02   1.889096E+02   8.768092E+00   1.922648E+02   5.754145E+03
  2   1.899365E+02   1.889096E+02   8.768633E+00   1.922810E+02   5.754535E+03
  3   1.019335E+02   1.047414E+02   9.687080E+00   1.494315E+02   2.846685E+03
  4   1.019364E+02   1.047414E+02   9.687449E+00   1.494424E+02   2.846934E+03
  5   1.019305E+02   1.047414E+02   9.686952E+00   1.494262E+02   2.846616E+03
  6   1.019291E+02   1.047414E+02   9.687156E+00   1.494292E+02   2.846661E+03

+ Dispersion coefficients
# All results in atomic units (Hartree,bohr).
# i   j      C6             C8             C10            Rc            Rvdw
  1   1   3.283936E+02   2.160282E+04   1.525229E+06   8.256202E+00   7.933345E+00
  2   1   3.284037E+02   2.160374E+04   1.525293E+06   8.256225E+00   7.933353E+00
  2   2   3.284139E+02   2.160465E+04   1.525358E+06   8.256249E+00   7.933361E+00
  3   1   1.670987E+02   9.362616E+03   5.549210E+05   7.591771E+00   7.715744E+00
  3   2   1.671067E+02   9.363185E+03   5.549541E+05   7.591793E+00   7.715751E+00
  3   3   1.199222E+02   5.549705E+03   2.608158E+05   6.829057E+00   7.465955E+00
  4   1   1.671038E+02   9.363034E+03   5.549509E+05   7.591816E+00   7.715759E+00
  4   2   1.671117E+02   9.363604E+03   5.549840E+05   7.591838E+00   7.715766E+00
  4   3   1.199261E+02   5.549985E+03   2.608321E+05   6.829107E+00   7.465972E+00
  4   4   1.199301E+02   5.550266E+03   2.608483E+05   6.829157E+00   7.465988E+00
  5   1   1.670944E+02   9.362290E+03   5.549004E+05   7.591750E+00   7.715737E+00
  5   2   1.671024E+02   9.362860E+03   5.549335E+05   7.591772E+00   7.715745E+00
  5   3   1.199196E+02   5.549526E+03   2.608068E+05   6.829035E+00   7.465948E+00
  5   4   1.199236E+02   5.549806E+03   2.608231E+05   6.829085E+00   7.465965E+00
  5   5   1.199170E+02   5.549347E+03   2.607979E+05   6.829013E+00   7.465941E+00
  6   1   1.670934E+02   9.362230E+03   5.548964E+05   7.591747E+00   7.715736E+00
  6   2   1.671014E+02   9.362800E+03   5.549295E+05   7.591770E+00   7.715744E+00
  6   3   1.199200E+02   5.549543E+03   2.608072E+05   6.829032E+00   7.465947E+00
  6   4   1.199240E+02   5.549823E+03   2.608235E+05   6.829082E+00   7.465963E+00
  6   5   1.199175E+02   5.549364E+03   2.607983E+05   6.829010E+00   7.465940E+00
  6   6   1.199179E+02   5.549380E+03   2.607987E+05   6.829007E+00   7.465939E+00

+ van der Waals energies, forces and stresses (Ry,bohr)
  Evdw(total,Ry)   =  -2.146398357111E-01
  Evdw(C6,Ry)      =  -8.692683737221E-02
  Evdw(C8,Ry)      =  -6.665782599651E-02
  Evdw(C10,Ry)     =  -6.105517234241E-02
  Fvdw (001,Ry/bohr) =  -5.212465126367E-09   3.009418238987E-09   7.587327290594E-08
  Fvdw (002,Ry/bohr) =   5.212758485052E-09  -3.009587627740E-09   8.361430349125E-08
  Fvdw (003,Ry/bohr) =   2.595397159963E-09  -1.498453289514E-09  -2.763962096389E-03
  Fvdw (004,Ry/bohr) =  -2.595598579172E-09   1.498569583077E-09  -2.764330463785E-03
  Fvdw (005,Ry/bohr) =   2.595351092430E-09  -1.498426689341E-09   2.763969701637E-03
  Fvdw (006,Ry/bohr) =  -2.595443057263E-09   1.498479781905E-09   2.764163370961E-03
  sigma_vdw (Ry/bohr**3) =  -2.183252739135E-04   4.625763338357E-11  -8.845740831213E-17
                             4.625763338357E-11  -2.183252204998E-04   5.108982128162E-17
                            -8.845740831213E-17   5.108982128162E-17  -1.488576583376E-04
  sigma_vdw (GPa) =  -3.211675655379E+00   6.804732789310E-07  -1.301253399212E-12
                      6.804732789310E-07  -3.211674869636E+00   7.515572169295E-13
                     -1.301253399212E-12   7.515572169295E-13  -2.189771751250E+00

!    total energy              =   -3128.20270793 Ry

     total all-electron energy =    -84012.927272 Ry
     estimated scf accuracy    <          3.4E-09 Ry

     The total energy is the sum of the following terms:
     one-electron contribution =   -1164.64514576 Ry
     hartree contribution      =     604.12831359 Ry
     xc contribution           =    -194.02870749 Ry
     ewald contribution        =    -598.62721372 Ry
     Dispersion XDM Correction =      -0.21463984 Ry
     one-center paw contrib.   =   -1774.81531470 Ry
      -> PAW hartree energy AE =     182.47313411 Ry
      -> PAW hartree energy PS =    -181.48943108 Ry
      -> PAW xc energy AE      =   -1289.20127930 Ry
      -> PAW xc energy PS      =      77.12116433 Ry
      -> total E_H with PAW    =     605.11201662 Ry
      -> total E_XC with PAW   =   -1406.10882246 Ry

     convergence has been achieved in  11 iterations

     Writing output data file ./tmp/WSe2.save/

     General routines

     Parallel routines

     PAW routines

   This run was terminated on:  17:43:42   6Sep2024

   JOB DONE.